p cnf 230 979
193 -64 120 0
-125 -221 80 0
215 200 188 0
-34 -227 46 0
94 102 -215 0
-41 -120 -196 0
-6 47 -113 0
45 -204 178 0
-102 -220 186 0
167 22 56 0
118 -13 60 0
203 -206 -219 0
227 -139 129 0
129 81 64 0
72 172 16 0
-153 220 12 0
213 -58 -141 0
-206 -225 5 0
197 92 121 0
-78 -210 -111 0
202 230 -219 0
-54 -192 109 0
-148 -88 -200 0
-187 -86 184 0
114 151 214 0
-116 171 -50 0
-172 10 181 0
-62 -129 136 0
28 -137 127 0
29 23 12 0
-6 -173 -53 0
205 146 156 0
-67 -160 110 0
-227 210 -29 0
221 -165 133 0
39 110 -157 0
29 -88 74 0
109 198 222 0
135 59 -184 0
-152 -15 43 0
173 -124 205 0
-126 -221 -196 0
-214 -149 43 0
-39 -180 145 0
28 -156 -163 0
135 -159 181 0
166 104 57 0
16 -127 94 0
195 -17 156 0
-198 -110 -86 0
14 -168 204 0
151 -115 77 0
-122 -177 -131 0
-19 -59 -33 0
132 92 -140 0
110 199 91 0
51 165 -26 0
136 -100 161 0
-79 201 -209 0
224 141 -122 0
-222 101 -197 0
61 -1 160 0
-21 -56 -158 0
154 9 58 0
-38 97 -129 0
-204 7 -89 0
20 -25 222 0
-114 -84 -111 0
157 -201 87 0
11 -10 -147 0
12 175 -215 0
-80 128 110 0
149 -13 -186 0
-37 170 227 0
-134 71 -167 0
23 -69 -198 0
-34 128 194 0
25 -100 -85 0
14 -149 -55 0
-31 -2 -60 0
-94 127 117 0
18 58 -48 0
-157 128 168 0
-223 -163 -6 0
143 38 204 0
8 109 23 0
226 133 -3 0
-215 -209 171 0
-169 -76 -70 0
32 -7 -118 0
52 -77 13 0
-154 28 -39 0
127 80 -216 0
24 -196 227 0
-137 66 7 0
176 -1 -222 0
74 -93 -212 0
-154 -19 -125 0
-13 -109 136 0
74 11 -4 0
-11 -136 -165 0
39 40 134 0
59 -6 -155 0
-62 221 122 0
214 -66 32 0
103 -134 -148 0
-171 -155 -192 0
-107 -210 99 0
-224 -175 -157 0
-12 -132 -173 0
-161 30 -174 0
73 96 158 0
-38 -3 -195 0
-161 158 -192 0
220 -194 150 0
145 -18 202 0
-223 60 140 0
205 -166 195 0
27 132 193 0
13 -97 158 0
-12 100 -224 0
-227 -170 -79 0
96 26 215 0
97 -47 -62 0
211 -166 -92 0
-138 103 -54 0
-27 188 178 0
-182 93 -53 0
-222 4 -49 0
193 64 -145 0
-56 -150 -217 0
12 -123 -93 0
225 184 98 0
-45 -201 -85 0
90 -113 200 0
127 195 197 0
192 30 166 0
91 78 39 0
-9 -136 -47 0
3 -171 45 0
-30 -5 -209 0
-163 230 -92 0
-120 -45 96 0
174 -30 -16 0
72 -52 -126 0
214 20 107 0
178 11 221 0
-7 -88 -93 0
-139 18 -140 0
9 208 -143 0
219 207 -110 0
-42 69 -164 0
36 -154 150 0
115 208 -50 0
-199 -219 61 0
-116 114 -73 0
163 -172 -180 0
153 29 -4 0
-138 -72 -92 0
-145 -117 -17 0
185 230 146 0
-157 -48 -77 0
115 154 88 0
59 38 -42 0
-62 113 -22 0
-95 128 -30 0
-98 -41 -202 0
-127 -124 18 0
-140 -205 142 0
-198 -186 183 0
94 88 221 0
-111 182 163 0
229 14 221 0
-129 128 -48 0
-83 -70 73 0
-47 33 70 0
134 -96 92 0
141 -31 20 0
-139 -140 -45 0
-66 196 156 0
-157 -10 -227 0
181 -138 -15 0
25 156 -11 0
-26 -72 -44 0
9 -193 -11 0
-159 -20 39 0
-132 54 -107 0
81 90 -133 0
194 187 -184 0
157 61 27 0
-174 -48 128 0
75 -80 115 0
186 192 2 0
-193 -147 12 0
219 -138 185 0
-175 6 -166 0
200 -134 -181 0
-72 -40 -90 0
-14 -67 -43 0
191 -67 225 0
-191 -193 229 0
131 9 30 0
195 -148 -76 0
53 75 -222 0
84 37 26 0
177 104 -39 0
24 30 -185 0
-129 214 176 0
229 111 -224 0
-144 -81 94 0
81 -187 -128 0
-165 -54 187 0
-122 -215 -169 0
22 -178 16 0
167 213 58 0
-5 11 -3 0
27 201 -103 0
201 6 67 0
-87 -140 175 0
33 47 129 0
-150 -162 165 0
102 -109 113 0
-182 -63 -3 0
-204 28 -96 0
152 197 -101 0
181 121 -186 0
-195 97 -57 0
192 193 183 0
100 56 -82 0
-169 110 98 0
-209 -135 -116 0
-174 52 -31 0
47 144 219 0
-208 -117 -108 0
63 152 21 0
-229 -53 -145 0
79 -98 175 0
-138 -72 -225 0
-184 -69 132 0
183 -221 -81 0
-3 41 -208 0
121 -96 59 0
-155 -223 136 0
-175 149 -73 0
215 170 67 0
110 133 -222 0
159 29 -9 0
225 207 -157 0
-156 159 -21 0
-207 87 -136 0
56 -19 -103 0
203 -128 -96 0
65 -61 1 0
-212 -108 93 0
-188 178 -132 0
92 -84 151 0
28 126 -105 0
36 161 -70 0
214 -3 22 0
-155 -41 -9 0
137 62 -134 0
219 138 -153 0
-122 103 -197 0
-62 -43 -213 0
44 75 10 0
208 -215 -120 0
65 -139 -105 0
65 -91 -151 0
149 102 -119 0
-78 -5 -79 0
-32 -137 -187 0
-79 46 -47 0
148 199 -82 0
201 -103 -116 0
152 -11 -87 0
-163 228 179 0
58 36 -141 0
153 -24 128 0
-73 -109 2 0
192 -49 147 0
217 -4 -228 0
-58 121 157 0
-6 85 -152 0
-48 140 127 0
50 -216 -76 0
-25 145 -197 0
-213 -185 -11 0
-89 84 -142 0
-112 87 -146 0
-197 183 132 0
-16 -57 115 0
204 32 76 0
152 -106 -13 0
124 171 -134 0
-90 40 142 0
216 176 157 0
-79 -215 67 0
-62 48 63 0
-72 -96 -123 0
69 75 111 0
-175 5 25 0
192 -15 -29 0
83 104 -146 0
-177 -113 -209 0
230 52 10 0
137 201 202 0
-147 -6 206 0
17 -212 203 0
-199 -89 -95 0
-114 230 -136 0
198 -195 -157 0
25 129 47 0
-155 59 141 0
-40 113 159 0
44 -126 -97 0
-226 165 -175 0
15 124 171 0
-200 147 -47 0
182 -101 150 0
-229 27 89 0
-1 83 -139 0
-228 -49 -79 0
209 98 78 0
-71 -156 207 0
122 90 97 0
18 100 106 0
-19 91 183 0
-88 133 43 0
80 -162 68 0
-79 -200 -96 0
225 6 -157 0
-70 22 216 0
-147 -201 -4 0
185 29 -52 0
91 11 94 0
153 -71 -105 0
49 -55 -155 0
-156 79 -144 0
-191 -9 94 0
-26 -85 183 0
19 -222 -48 0
215 -219 -137 0
124 -192 -203 0
-147 104 225 0
-63 -155 -34 0
-219 -140 195 0
215 -207 182 0
11 145 -47 0
-44 143 -1 0
137 -102 -144 0
-123 69 -122 0
-217 12 -1 0
-104 4 -50 0
107 90 126 0
-137 -17 58 0
-168 -214 117 0
-81 103 -95 0
50 65 -42 0
207 44 -225 0
-153 -140 6 0
35 69 135 0
-119 -116 227 0
-19 -169 -89 0
45 221 79 0
146 -54 6 0
-178 154 176 0
-230 35 -153 0
191 -114 10 0
-216 2 -150 0
-109 171 -212 0
-11 -29 -24 0
-71 75 189 0
-58 54 156 0
-10 44 -155 0
207 -82 -97 0
40 136 -197 0
136 138 44 0
16 -15 -210 0
154 89 95 0
-166 107 -184 0
212 42 -151 0
54 -11 -23 0
202 -172 -207 0
-163 -59 88 0
128 51 33 0
39 -153 198 0
153 -207 37 0
-7 -17 218 0
72 73 -131 0
-31 -4 165 0
198 -60 88 0
151 -139 24 0
83 -74 132 0
-24 -213 -175 0
209 -67 140 0
-116 -191 -5 0
105 -15 -25 0
159 32 150 0
158 -91 -75 0
187 -139 192 0
-151 -182 44 0
-84 -115 57 0
-20 128 -164 0
-123 139 -38 0
82 -64 212 0
158 -205 -189 0
-172 67 -183 0
197 -21 -191 0
153 77 -101 0
-192 -209 40 0
197 -137 6 0
-222 8 -62 0
-200 -140 121 0
225 -66 205 0
-118 145 94 0
205 153 3 0
-91 113 -119 0
206 -5 118 0
178 12 -148 0
42 -149 112 0
-212 72 -214 0
-22 43 -40 0
-21 -118 -22 0
-225 -158 -151 0
-199 93 175 0
102 -141 -104 0
-35 127 223 0
82 123 8 0
-201 184 143 0
157 -66 -107 0
-91 -100 172 0
155 131 191 0
41 -36 -197 0
106 157 74 0
28 -15 122 0
44 190 73 0
-83 29 -180 0
-80 -164 99 0
-35 -160 -217 0
-70 -86 -124 0
-209 -106 153 0
150 -154 -143 0
-203 137 -204 0
-123 -23 -4 0
-18 40 -228 0
180 67 -75 0
-192 151 10 0
-61 -85 -217 0
19 -107 -193 0
191 -26 -189 0
155 154 -230 0
112 -89 166 0
-226 191 154 0
-188 -113 -61 0
-40 30 -76 0
53 117 -222 0
-27 111 223 0
153 -4 168 0
-135 -35 -99 0
-136 -229 121 0
127 -85 220 0
-144 30 178 0
117 180 -51 0
-101 -214 -35 0
-189 -161 87 0
158 -44 216 0
-174 -55 -227 0
161 -229 67 0
-187 -31 -77 0
-206 197 -110 0
121 -123 -85 0
102 -157 104 0
-225 28 -21 0
-133 9 -91 0
-174 173 50 0
-160 131 36 0
113 155 -74 0
-37 87 129 0
45 163 -72 0
-27 65 3 0
31 108 -67 0
-175 26 178 0
-139 201 -203 0
-58 -64 108 0
137 -6 -151 0
39 82 -141 0
-151 156 -85 0
64 116 -219 0
200 -178 -69 0
51 189 82 0
224 -129 -31 0
171 119 59 0
62 -201 -226 0
33 216 -171 0
27 177 199 0
103 1 163 0
85 56 -161 0
4 -200 68 0
-203 -115 57 0
-161 -166 -135 0
179 -3 -36 0
-152 104 45 0
198 127 -219 0
116 -29 204 0
116 37 -207 0
15 -79 92 0
65 -206 138 0
146 -84 166 0
85 -81 -1 0
-130 -219 123 0
18 -88 130 0
-109 -215 153 0
153 89 222 0
158 -93 -101 0
103 227 -8 0
107 -203 -156 0
160 68 24 0
145 189 -193 0
-25 44 88 0
-126 105 153 0
23 62 55 0
-49 45 -174 0
140 204 50 0
51 -76 -226 0
209 -133 113 0
-46 49 -171 0
-186 161 -80 0
-142 -83 88 0
73 -219 8 0
-187 178 74 0
10 26 -138 0
-76 -11 -124 0
19 16 -219 0
-114 47 173 0
-161 34 131 0
-220 184 62 0
-99 130 -103 0
-50 -96 142 0
-217 66 -68 0
156 -211 200 0
138 -36 111 0
27 196 -132 0
-3 224 -202 0
-162 128 3 0
144 14 2 0
-23 -206 -207 0
52 -152 199 0
128 -162 124 0
-25 214 209 0
32 -216 -54 0
-2 -198 218 0
150 78 188 0
203 106 35 0
11 127 160 0
-11 125 122 0
-166 -4 -140 0
-67 -111 -170 0
-3 -42 175 0
18 189 227 0
-139 -201 171 0
-209 -65 -222 0
-28 -149 142 0
136 -72 -94 0
151 12 122 0
167 103 172 0
-214 21 84 0
99 213 -90 0
-58 -173 46 0
-29 -12 58 0
105 9 39 0
-171 225 134 0
-4 145 -52 0
-22 159 -209 0
108 -151 -77 0
-157 -117 136 0
64 143 109 0
-147 -187 184 0
99 -126 -117 0
-39 200 101 0
-223 146 97 0
208 -147 -165 0
25 78 -79 0
-73 146 -181 0
-108 176 -155 0
-204 -82 -79 0
40 78 55 0
160 114 42 0
219 116 38 0
-10 210 -4 0
-4 151 -110 0
119 71 -145 0
-78 -60 185 0
-124 167 -79 0
163 75 -193 0
130 -41 -89 0
35 -65 99 0
-126 -176 3 0
225 -224 -8 0
-71 -16 56 0
148 -184 100 0
140 147 52 0
-7 192 -90 0
129 -16 178 0
44 -139 200 0
-83 -175 -9 0
-4 71 -152 0
138 -180 -73 0
-63 -221 217 0
51 148 188 0
117 212 58 0
148 168 -120 0
-137 -189 95 0
14 41 114 0
209 111 64 0
71 -14 -108 0
-132 185 -43 0
-171 10 -218 0
-154 -155 -121 0
-78 -194 125 0
187 36 28 0
172 -42 -107 0
144 -33 106 0
-209 106 91 0
-76 41 160 0
-163 29 134 0
39 -190 221 0
-65 8 -210 0
74 -162 -43 0
-220 -82 193 0
-165 91 41 0
26 74 -162 0
72 -196 -81 0
37 197 -58 0
-51 71 74 0
31 59 -141 0
7 122 -60 0
-68 -193 4 0
-168 -137 -2 0
-21 70 -183 0
95 50 55 0
-214 -15 -77 0
-79 -17 100 0
3 -50 -175 0
144 -103 145 0
115 -62 107 0
-117 -77 -64 0
-131 -207 145 0
-124 86 -110 0
-192 69 -185 0
138 -180 -155 0
-41 -44 -172 0
-12 143 -212 0
15 -130 119 0
41 210 165 0
-141 -118 151 0
-70 -88 -71 0
-217 182 139 0
-129 154 -85 0
-123 -190 -170 0
50 123 -193 0
-142 174 -147 0
-81 69 91 0
-39 -70 224 0
177 142 -83 0
-160 216 -55 0
89 121 -173 0
17 28 57 0
10 211 -217 0
-197 -205 -177 0
-220 -207 -214 0
143 165 -40 0
141 -77 -165 0
111 143 170 0
-68 -46 -176 0
90 -126 -180 0
129 121 199 0
118 64 -200 0
182 -61 -197 0
191 117 -67 0
-201 127 61 0
-37 192 50 0
107 48 -168 0
219 192 87 0
23 51 98 0
-42 -164 17 0
142 190 109 0
91 90 -60 0
-163 -20 104 0
-68 -213 -161 0
-132 -24 4 0
-43 -85 61 0
59 47 162 0
-151 -135 69 0
-196 30 115 0
121 -155 179 0
143 -59 12 0
105 127 -66 0
201 111 -104 0
80 176 -110 0
60 11 -69 0
53 -172 -52 0
210 78 -181 0
214 -230 -2 0
-28 -213 3 0
106 -187 77 0
1 187 -120 0
229 152 -43 0
-114 36 66 0
-19 -199 222 0
-59 -158 146 0
1 -88 191 0
-223 209 -74 0
196 -176 175 0
175 133 -15 0
68 -70 142 0
-88 53 -80 0
-91 -178 -83 0
170 -183 162 0
-165 -51 -88 0
-74 139 213 0
-161 -55 3 0
-27 188 -111 0
-161 -192 -230 0
-78 66 -169 0
-180 24 156 0
-129 104 -223 0
-145 137 -219 0
89 216 -170 0
4 -157 65 0
110 219 116 0
-204 -110 47 0
-163 -101 -170 0
-46 111 129 0
104 149 11 0
151 -32 196 0
-35 -223 172 0
136 2 85 0
193 -49 -108 0
-172 -83 178 0
-53 -55 157 0
-4 -25 28 0
10 201 173 0
124 -119 83 0
-183 104 -118 0
201 -185 -226 0
-99 -163 93 0
-8 -184 209 0
6 200 135 0
71 179 -31 0
-155 -97 77 0
86 151 -193 0
126 -100 -136 0
163 -144 170 0
-151 185 80 0
174 221 -98 0
-15 158 -117 0
158 15 -168 0
-1 -24 149 0
133 -28 13 0
157 -103 174 0
91 -185 -47 0
14 101 162 0
117 -156 146 0
-64 105 -37 0
-20 -156 22 0
141 -6 83 0
-4 141 60 0
45 -218 -219 0
-36 -168 53 0
-202 40 205 0
31 -200 29 0
1 -47 -63 0
131 59 5 0
-23 -70 200 0
-169 122 17 0
50 149 124 0
99 112 -27 0
57 -61 225 0
168 -97 51 0
-197 -40 12 0
91 65 -198 0
-223 88 90 0
31 224 -29 0
80 -207 163 0
185 -204 120 0
-81 -61 -179 0
-124 161 -181 0
-152 -46 206 0
128 -45 96 0
192 102 -38 0
-133 -18 -88 0
-66 -170 20 0
139 75 -137 0
218 73 -224 0
-189 -216 128 0
72 -218 145 0
163 -75 -72 0
-11 156 -229 0
32 41 152 0
-210 -70 164 0
-184 77 132 0
27 -31 -147 0
35 220 197 0
-131 99 -68 0
87 166 -47 0
219 196 113 0
141 -45 -124 0
-147 49 8 0
2 181 -117 0
-141 68 -61 0
-12 68 -212 0
66 -197 120 0
10 166 146 0
71 105 -49 0
139 -163 -94 0
47 71 -36 0
-103 -11 -159 0
132 141 -166 0
30 184 -26 0
196 -170 164 0
-122 100 -176 0
53 -51 -194 0
-94 -165 -36 0
14 -49 -129 0
-224 -203 12 0
-185 158 -124 0
-26 108 -151 0
174 -126 -26 0
-215 22 135 0
203 -65 -116 0
99 209 -212 0
-148 -194 -155 0
-42 -115 -195 0
-187 58 -14 0
-193 -191 19 0
152 -136 -76 0
209 194 195 0
216 -31 43 0
-104 107 214 0
-63 -91 72 0
-98 196 -107 0
-85 -63 26 0
147 -176 -192 0
-130 -227 52 0
-218 -110 108 0
86 -134 -122 0
165 77 195 0
-167 -65 111 0
192 -134 -130 0
134 -62 -36 0
-95 -199 176 0
-204 -193 64 0
-190 -102 18 0
-117 6 197 0
-44 -112 -78 0
-27 -1 76 0
-162 101 -145 0
-152 -1 -173 0
-107 -142 51 0
-158 214 98 0
-225 -43 178 0
227 -184 164 0
70 -96 -205 0
223 -73 7 0
134 -102 -52 0
-2 -33 111 0
217 -56 -182 0
127 -144 24 0
-161 170 7 0
131 97 198 0
-154 -161 198 0
61 218 -166 0
67 201 110 0
-134 -37 -221 0
-81 -147 174 0
129 -71 195 0
-193 -164 188 0
137 -148 -118 0
156 173 123 0
-62 161 -34 0
-156 -214 -32 0
180 -56 -57 0
-105 36 218 0
-24 -61 -206 0
-208 -153 25 0
52 -101 86 0
-139 -212 -13 0
101 -14 190 0
203 175 46 0
-96 60 173 0
181 -196 159 0
206 32 -218 0
71 -119 214 0
-42 183 152 0
-167 43 -155 0
107 -127 200 0
-104 -209 227 0
-213 192 143 0
37 86 123 0
104 -66 74 0
197 31 -80 0
-135 55 87 0
-195 -160 97 0
-78 -193 126 0
36 98 17 0
212 30 -144 0
36 -73 -149 0
104 166 26 0
-8 -171 -196 0
-70 -132 -46 0
52 50 56 0
-220 219 140 0
155 -218 125 0
-17 -225 -59 0
82 37 151 0
51 -88 73 0
-14 -133 -23 0
15 -57 -166 0
143 76 14 0
-227 217 -81 0
106 207 75 0
-121 95 103 0
43 50 -209 0
-141 -163 189 0
-211 78 105 0
212 77 -37 0
121 228 229 0
86 -64 197 0
-172 -163 -140 0
123 81 -120 0
80 20 -63 0
-195 -39 25 0
-110 130 -181 0
-160 -105 -88 0
-93 80 -63 0
-11 -137 178 0
-103 -38 -62 0
203 -120 155 0
208 -55 -230 0
42 101 -45 0
42 -201 90 0
213 -69 1 0
-13 -101 -134 0
176 -88 135 0
-218 -153 168 0
-222 -131 -199 0
70 -212 145 0
-89 -214 166 0
-102 37 165 0
-74 90 -226 0
130 190 -182 0
91 97 -130 0
170 197 11 0
105 -23 226 0
-35 225 215 0
-90 -222 87 0
82 -16 -218 0
-91 -155 -44 0
-151 -227 53 0
-132 -225 -202 0
-94 170 163 0
-123 -117 -86 0
127 -85 -179 0
-29 -9 -39 0
-24 -70 -150 0
21 127 -105 0
-106 67 6 0
140 224 82 0
-107 32 -56 0
73 -33 -72 0
191 128 144 0
-62 -87 -72 0
7 -146 164 0
84 107 -220 0
137 59 -214 0
-147 -83 -22 0
-214 108 -228 0
-108 -200 187 0
-92 -171 -154 0
