p cnf 180 766
169 -76 160 0
153 -116 42 0
-171 30 99 0
72 -70 179 0
-45 -146 -113 0
-162 -61 -25 0
62 124 -35 0
-16 78 61 0
116 4 38 0
-174 137 132 0
-107 -60 14 0
98 -73 -60 0
-180 107 17 0
-23 98 -111 0
105 -83 -88 0
-4 161 171 0
12 -99 145 0
-70 85 64 0
29 -54 -98 0
-47 -164 -31 0
169 82 -73 0
49 134 -140 0
166 43 -156 0
38 152 -69 0
69 -83 -71 0
-153 -37 33 0
64 -175 47 0
109 171 -152 0
3 179 -175 0
-122 75 -61 0
54 -102 -78 0
77 107 58 0
116 32 167 0
-130 -3 -160 0
-19 154 125 0
-140 -11 12 0
-170 -143 84 0
-75 -15 -165 0
-87 123 -66 0
-149 109 58 0
135 -21 -102 0
83 -102 20 0
103 41 -61 0
-2 -124 -122 0
13 135 -94 0
75 122 78 0
165 -148 -17 0
160 72 155 0
63 -106 47 0
116 -151 11 0
-54 70 79 0
-11 13 100 0
-93 146 178 0
138 -119 82 0
-68 87 6 0
-167 76 137 0
-174 108 179 0
-107 10 -5 0
-6 -63 101 0
140 96 -16 0
145 -108 124 0
-115 149 -103 0
-167 -57 90 0
56 177 -141 0
134 127 -84 0
165 151 -48 0
-172 102 -14 0
-96 -139 -175 0
176 -20 124 0
-117 -166 -4 0
73 -26 95 0
80 27 -152 0
19 153 -114 0
48 -83 118 0
122 -113 152 0
59 -67 -33 0
-15 -14 177 0
67 -50 158 0
-176 7 -142 0
136 162 -72 0
-98 26 129 0
52 141 56 0
106 44 158 0
-20 -158 -105 0
-113 117 131 0
134 70 18 0
-142 -85 36 0
77 -126 160 0
-179 114 -173 0
16 -52 9 0
-97 57 -27 0
-97 99 -155 0
123 102 168 0
-122 4 109 0
-159 163 156 0
-75 120 144 0
1 -127 32 0
-24 40 174 0
2 80 28 0
135 84 17 0
38 51 87 0
59 45 -147 0
-66 7 -10 0
-74 122 -82 0
-117 114 -170 0
-154 140 166 0
22 48 -50 0
-85 25 104 0
25 155 -36 0
15 113 40 0
3 -35 95 0
62 42 4 0
59 20 161 0
57 -92 106 0
-164 121 31 0
-17 43 1 0
-138 98 -41 0
31 -155 130 0
80 -74 47 0
-29 -143 28 0
-168 129 121 0
-141 -52 155 0
88 -22 -26 0
-39 -1 -101 0
-143 -61 163 0
94 -82 -8 0
-46 63 98 0
-29 1 115 0
153 -26 -157 0
14 161 61 0
-146 33 12 0
-92 -49 33 0
109 33 63 0
154 -69 -40 0
35 132 -50 0
-130 -23 166 0
126 68 -22 0
68 148 -141 0
-2 151 11 0
-50 69 -174 0
-171 -150 -18 0
99 95 45 0
100 -64 -22 0
10 -32 56 0
54 62 -53 0
3 -163 36 0
119 -30 56 0
-169 -144 139 0
-174 -83 105 0
20 163 -39 0
78 160 -121 0
-32 86 -88 0
25 139 82 0
-129 74 -172 0
-169 -125 -28 0
98 113 -34 0
96 -150 46 0
24 91 123 0
133 -52 -97 0
171 100 26 0
-89 -161 -175 0
-18 -111 12 0
-140 -178 37 0
-107 -61 -72 0
-123 -48 -105 0
119 -4 8 0
-67 -123 160 0
74 -68 98 0
-126 -26 -95 0
21 175 170 0
-10 -123 -8 0
180 74 -142 0
44 149 99 0
-59 61 43 0
162 136 -31 0
97 21 -47 0
-54 10 -146 0
-175 38 58 0
42 96 -155 0
-9 -42 57 0
-15 144 -82 0
137 -109 77 0
-170 98 -23 0
-42 68 -144 0
-47 18 159 0
-179 -153 149 0
-13 10 -37 0
118 84 -159 0
-160 -106 -54 0
-152 72 -125 0
37 -140 -104 0
-119 -42 -76 0
-70 -46 -48 0
-74 -158 -31 0
-114 55 7 0
-110 -132 131 0
-177 -133 29 0
62 44 88 0
-117 25 -52 0
119 21 -128 0
56 -72 -158 0
-121 141 120 0
-25 -174 45 0
-27 172 12 0
-18 159 133 0
-103 -81 75 0
-47 -45 -43 0
-46 18 94 0
59 117 -36 0
-23 20 -103 0
41 -49 -97 0
16 139 80 0
134 40 132 0
77 28 -122 0
83 -92 -61 0
-10 178 -151 0
84 -79 117 0
29 -81 -160 0
62 -88 -130 0
-23 3 -78 0
-71 -161 -91 0
29 -102 -61 0
-4 -146 24 0
-21 -166 99 0
38 -130 49 0
-65 50 -164 0
176 148 -101 0
4 26 -179 0
43 104 102 0
-38 22 -161 0
167 -39 58 0
117 82 45 0
142 -132 -33 0
10 -56 16 0
-51 130 103 0
-105 -32 119 0
38 -59 119 0
-112 43 160 0
123 154 95 0
-17 -31 72 0
-120 -109 -3 0
32 -7 161 0
-165 116 -168 0
-121 90 122 0
-49 -25 40 0
-3 104 10 0
9 -146 114 0
-35 -180 70 0
158 37 149 0
87 -137 -78 0
-157 -33 91 0
27 -158 37 0
-52 -109 -90 0
146 117 2 0
139 114 -96 0
-58 121 16 0
33 158 92 0
-179 -3 8 0
-88 -130 165 0
-160 129 -126 0
-106 -134 -144 0
-38 -141 -95 0
34 162 179 0
161 133 -149 0
-81 127 57 0
-107 -94 66 0
-159 23 164 0
170 -84 161 0
-66 -41 -123 0
-36 -7 20 0
4 -134 -15 0
-70 -101 171 0
120 -135 -146 0
12 -124 67 0
-148 -69 143 0
36 -87 106 0
-107 10 146 0
-123 27 29 0
-32 6 -86 0
-121 165 93 0
-69 -71 -48 0
111 -176 38 0
22 11 -120 0
-21 128 -57 0
123 -180 -14 0
96 109 165 0
137 -160 -158 0
104 126 134 0
158 -127 -157 0
-40 -161 -22 0
-51 91 -74 0
162 36 -14 0
110 13 -58 0
-73 143 -169 0
-102 134 88 0
-107 -157 78 0
-63 92 28 0
-106 44 115 0
12 35 75 0
11 104 150 0
-67 -35 126 0
-110 13 163 0
-134 -61 -112 0
-60 -117 -71 0
175 91 -37 0
77 -111 -7 0
-39 -139 -92 0
64 -37 33 0
144 141 -138 0
-77 -109 146 0
-170 -4 67 0
133 7 -66 0
6 104 151 0
26 78 154 0
-175 -81 105 0
87 -46 -110 0
21 170 -26 0
-38 111 179 0
-156 51 52 0
29 -167 -48 0
19 49 -180 0
77 9 134 0
132 -179 -135 0
52 156 -161 0
33 -14 -151 0
-132 66 -123 0
-150 -108 -63 0
68 130 146 0
12 -138 160 0
-144 155 -149 0
-32 66 9 0
-158 70 -60 0
-22 155 -119 0
-18 61 -170 0
-116 147 67 0
-130 -6 145 0
158 -50 28 0
8 154 41 0
155 -77 -64 0
-45 -93 -127 0
149 19 146 0
-125 -57 -124 0
-110 -5 150 0
26 119 66 0
-80 57 -22 0
135 119 158 0
146 117 -13 0
-157 -2 -171 0
49 -144 -113 0
176 -21 26 0
48 -151 52 0
128 174 -87 0
-28 -73 -46 0
-47 -3 -40 0
34 107 97 0
7 38 98 0
-38 -28 -73 0
-80 70 150 0
-50 -156 -28 0
42 6 -161 0
115 15 135 0
7 121 35 0
143 51 112 0
73 -178 98 0
143 -5 142 0
-39 -11 -163 0
124 131 -178 0
-44 167 77 0
58 -167 137 0
-113 136 40 0
26 35 99 0
152 -63 101 0
27 -87 -80 0
-109 132 -35 0
-13 -167 97 0
160 -51 113 0
-139 129 166 0
53 -143 65 0
-45 -69 -37 0
17 -39 -37 0
-133 67 73 0
-4 117 165 0
9 115 25 0
-135 69 62 0
-5 -151 -51 0
90 34 -156 0
-106 -178 170 0
150 -165 -106 0
174 66 -64 0
-12 -177 22 0
104 144 -147 0
-78 157 175 0
165 161 -41 0
-32 -140 -159 0
-142 -37 -6 0
105 -17 -104 0
-20 37 99 0
-110 180 46 0
-150 -169 -55 0
-48 71 -114 0
-152 -118 34 0
159 124 121 0
160 -167 171 0
-54 -108 99 0
163 116 -63 0
-130 93 -159 0
-160 135 83 0
24 -164 75 0
-79 -26 -96 0
72 -111 92 0
130 52 121 0
-120 178 -171 0
22 42 -82 0
-30 164 -25 0
91 1 72 0
15 -102 -96 0
80 7 121 0
145 105 43 0
104 9 179 0
-141 34 -164 0
-151 47 -58 0
180 159 94 0
121 -154 76 0
96 108 -10 0
-32 -131 24 0
-175 94 177 0
118 86 76 0
-52 63 56 0
123 -168 78 0
-91 -68 -81 0
-163 84 124 0
172 56 102 0
104 -55 87 0
-92 -138 85 0
105 144 -16 0
-15 5 167 0
90 -96 61 0
-128 -99 49 0
-149 -155 156 0
-96 41 12 0
159 105 100 0
-116 90 148 0
-115 174 -77 0
-4 94 153 0
-52 62 -127 0
-57 59 -110 0
60 65 -103 0
65 51 -126 0
-100 -117 -167 0
120 76 32 0
-83 96 50 0
161 169 -151 0
-16 -23 -79 0
-111 88 -169 0
2 17 -90 0
92 49 -140 0
179 140 87 0
80 -117 -115 0
159 -49 97 0
57 -169 67 0
-107 59 -125 0
178 -9 -176 0
-160 -107 -87 0
177 16 132 0
60 150 -18 0
-7 159 -172 0
31 -163 178 0
-72 -172 113 0
58 151 -36 0
-31 -56 63 0
-122 75 -174 0
-161 -96 -74 0
4 -50 127 0
-88 103 -85 0
-96 -29 -163 0
-33 170 18 0
-56 -106 -11 0
128 -60 166 0
26 146 -158 0
-172 -59 162 0
-148 -138 -102 0
-133 179 16 0
153 42 33 0
-122 166 -145 0
38 -12 -175 0
131 156 -104 0
-81 -58 -42 0
65 2 92 0
15 40 -119 0
141 108 146 0
49 -47 70 0
-104 134 -101 0
37 72 31 0
-143 -87 75 0
-78 -91 109 0
94 119 159 0
-105 87 -116 0
128 28 72 0
3 -134 -172 0
144 109 7 0
-117 42 175 0
180 -138 163 0
-52 -45 -146 0
48 -144 37 0
-13 169 51 0
125 -48 -1 0
115 -131 56 0
31 141 65 0
-142 -27 23 0
-172 21 1 0
131 -73 97 0
-174 145 -144 0
-44 33 89 0
55 71 90 0
37 -123 141 0
96 -7 154 0
135 18 102 0
-154 47 98 0
-4 79 -110 0
-103 -44 -134 0
15 63 91 0
94 -163 41 0
-49 -85 -23 0
-112 33 93 0
113 95 -151 0
-21 -33 34 0
-115 -72 -34 0
-89 -159 11 0
-53 139 -32 0
114 38 -99 0
-139 122 91 0
60 20 4 0
61 -124 161 0
-40 90 57 0
-146 104 -122 0
124 169 98 0
-111 -46 -22 0
-22 120 65 0
126 -56 96 0
-78 25 38 0
79 -180 -12 0
-68 24 73 0
-137 -96 -135 0
-130 92 -57 0
149 126 98 0
-91 -71 -11 0
-68 175 -51 0
128 14 126 0
-125 97 -39 0
-66 15 38 0
27 87 154 0
-155 -173 52 0
-140 8 -147 0
79 150 62 0
36 -152 -88 0
63 41 -70 0
49 102 -64 0
-111 59 -141 0
178 -4 156 0
-53 168 70 0
-130 -22 -64 0
-110 -20 -78 0
56 33 -4 0
-42 -104 -10 0
-8 -129 163 0
-50 -174 8 0
59 105 88 0
-90 61 134 0
-51 -142 -116 0
86 -124 13 0
10 -63 30 0
114 -107 144 0
-4 -168 43 0
16 29 -121 0
-145 7 -50 0
-42 126 -152 0
15 56 35 0
-127 133 -147 0
94 -162 21 0
-16 -177 -49 0
171 83 162 0
-178 107 -63 0
121 -147 -174 0
-54 -178 138 0
147 -67 -154 0
-166 137 -84 0
38 -101 59 0
140 -80 -123 0
122 103 -104 0
-60 134 -22 0
-12 -110 9 0
20 105 50 0
-28 -37 122 0
-123 88 -92 0
-22 -91 -80 0
-77 -37 106 0
166 -118 -85 0
-5 179 -17 0
136 59 19 0
147 178 -11 0
42 41 36 0
-2 -117 -43 0
-138 -75 -170 0
-95 -61 -40 0
107 118 -173 0
-1 -147 -14 0
28 -16 131 0
-104 95 -20 0
-145 12 113 0
-95 -132 79 0
-61 -29 -2 0
67 -54 -167 0
82 -32 -89 0
-150 -52 19 0
-151 -16 67 0
-72 -53 70 0
109 -75 10 0
138 123 107 0
-74 17 -90 0
15 58 -50 0
-52 27 -108 0
92 170 -18 0
130 80 98 0
-106 -145 102 0
-14 116 -71 0
-24 -4 93 0
-158 -153 -99 0
-76 -130 80 0
131 138 -137 0
108 -96 152 0
130 125 -34 0
7 -102 -45 0
-108 -49 61 0
50 -102 -170 0
-142 -137 130 0
-91 -72 -92 0
-142 -120 153 0
-118 -152 -11 0
-143 51 148 0
-26 -51 -168 0
21 -17 -78 0
68 27 -151 0
-128 44 116 0
172 120 -179 0
57 -131 -39 0
76 97 -121 0
165 6 125 0
-110 177 -147 0
9 -7 78 0
-138 66 7 0
-114 -19 -68 0
102 -69 152 0
179 133 8 0
87 101 -114 0
7 42 -138 0
107 -139 25 0
117 -49 77 0
-52 167 -76 0
25 87 18 0
115 143 27 0
-138 102 107 0
-83 -125 139 0
81 151 -79 0
77 -17 169 0
-74 -53 -153 0
62 -60 -23 0
99 52 57 0
-30 152 1 0
-79 -12 51 0
63 59 73 0
-34 171 -146 0
132 141 90 0
-168 100 -7 0
-149 36 56 0
169 23 -53 0
-32 177 -169 0
-38 79 -88 0
-171 -31 95 0
74 -130 121 0
68 80 -118 0
132 -58 153 0
17 122 -109 0
-83 20 -126 0
-141 76 111 0
170 92 127 0
-40 127 -36 0
-129 -13 46 0
-71 51 74 0
33 -28 89 0
50 163 -42 0
-125 68 -18 0
-90 173 2 0
116 143 49 0
-140 57 -1 0
76 -9 46 0
-46 -160 -141 0
167 -16 -104 0
-12 -123 -81 0
4 -36 -3 0
90 126 91 0
-44 19 147 0
161 -116 -158 0
172 145 10 0
-45 -124 76 0
1 -29 -135 0
157 5 -76 0
-11 -162 164 0
-7 134 180 0
-120 -45 107 0
142 -38 3 0
-63 168 -2 0
144 -59 -90 0
113 63 134 0
95 76 -75 0
90 153 -130 0
-64 137 45 0
27 -176 57 0
89 94 -78 0
104 163 90 0
30 -66 -37 0
-34 67 -41 0
-174 158 87 0
-165 -36 50 0
-98 -22 -120 0
148 134 -50 0
-99 155 154 0
110 170 -169 0
149 134 7 0
-161 131 -28 0
-176 91 -55 0
126 -74 -124 0
128 73 -159 0
97 15 10 0
-84 -70 159 0
179 4 15 0
-81 -18 -40 0
82 129 -10 0
173 -73 140 0
-131 -83 -43 0
-65 -66 147 0
1 -87 -9 0
128 135 158 0
115 -85 21 0
-168 163 -52 0
-121 130 -17 0
-93 -140 66 0
-55 -89 9 0
78 -152 175 0
54 -99 13 0
127 -27 46 0
-24 134 67 0
132 -47 45 0
94 -4 130 0
-173 -4 141 0
80 -60 -30 0
-72 -42 36 0
-26 59 -84 0
-124 160 -85 0
-136 -52 62 0
57 163 -15 0
-96 12 99 0
-11 145 -120 0
46 -39 126 0
-34 68 85 0
-132 -98 -176 0
137 -106 158 0
