p cnf 355 922
-5 1 -3 0
-4 -3 -1 0
-5 1 -2 0
5 -4 1 0
5 2 4 0
2 -5 1 0
3 1 5 0
3 -2 -1 0
2 -5 4 0
3 -5 2 0
4 -1 -2 0
4 5 2 0
-8 7 -10 0
7 -8 10 0
8 10 7 0
-6 -10 9 0
8 -6 7 0
8 6 -9 0
-7 -6 -9 0
7 -9 10 0
8 9 7 0
-9 -8 -6 0
-10 6 -8 0
10 -6 8 0
-13 -14 -15 0
-11 13 12 0
-13 15 14 0
-15 14 -12 0
-13 12 15 0
-11 12 -14 0
-14 13 -15 0
-11 15 14 0
12 15 -14 0
-13 12 15 0
14 -13 11 0
-13 14 -15 0
20 -18 -17 0
-18 -16 20 0
17 19 18 0
20 -17 19 0
-20 -17 -19 0
20 19 18 0
19 -20 17 0
19 -16 -18 0
20 18 16 0
-18 -17 19 0
20 19 16 0
19 18 -17 0
24 -22 21 0
25 24 -23 0
21 -22 -23 0
23 -25 21 0
-24 -25 23 0
25 24 23 0
24 -25 -23 0
21 23 -25 0
-25 -22 -21 0
22 -21 24 0
-22 24 23 0
-22 24 -21 0
27 30 -26 0
-26 28 -30 0
-28 26 -27 0
27 29 -26 0
-30 29 -28 0
30 -28 -29 0
26 28 30 0
-26 28 30 0
29 28 27 0
-26 29 -28 0
-30 -27 29 0
30 28 29 0
34 -33 -35 0
-32 31 34 0
35 -32 -34 0
33 35 34 0
-34 -35 33 0
35 32 34 0
35 -33 -34 0
33 -31 -34 0
-34 35 -32 0
-35 -34 -32 0
31 33 35 0
-34 35 33 0
37 -40 -39 0
39 37 -36 0
-40 -39 -36 0
38 -40 37 0
-40 36 38 0
38 -36 39 0
39 40 -37 0
-37 -36 38 0
-40 -36 38 0
-40 39 -36 0
38 40 37 0
40 -39 -38 0
-41 44 -42 0
-45 -41 43 0
42 -41 -43 0
42 -43 44 0
-42 -45 44 0
-45 -41 -44 0
41 44 45 0
-44 41 -43 0
-41 -42 -44 0
-45 42 41 0
-42 -43 -41 0
43 -41 -42 0
-47 48 50 0
46 -50 -47 0
47 -50 -48 0
-47 48 -46 0
-47 -50 49 0
47 -49 -48 0
49 -46 50 0
48 -50 46 0
-46 47 48 0
-46 47 50 0
-48 47 49 0
-48 50 -47 0
52 -51 55 0
52 53 -54 0
54 -51 53 0
-53 51 55 0
-55 -54 51 0
54 51 -53 0
53 -52 -55 0
-53 -55 54 0
52 55 51 0
54 -53 -51 0
-54 -53 -52 0
53 -55 -54 0
-60 -57 -56 0
-57 58 59 0
59 58 -57 0
60 -59 58 0
-59 -57 60 0
60 59 -58 0
-59 -57 -58 0
-58 -59 -56 0
56 -58 57 0
60 56 59 0
59 -56 -57 0
57 58 60 0
-65 62 -63 0
63 -64 -65 0
65 -62 -64 0
65 -62 -63 0
65 -63 -61 0
-61 64 65 0
-64 63 -65 0
-61 65 -63 0
-61 -62 -64 0
61 -64 62 0
65 61 -62 0
63 -62 64 0
66 -70 -69 0
70 -68 67 0
-68 69 66 0
-69 -67 68 0
-70 -67 -66 0
-70 67 69 0
67 69 66 0
67 66 69 0
66 69 -67 0
-67 68 -69 0
-69 70 -67 0
-70 66 67 0
71 75 72 0
75 -74 -71 0
71 72 74 0
75 -74 73 0
-75 -72 -74 0
75 -74 71 0
-73 -71 72 0
71 -72 -73 0
-71 73 74 0
71 -72 73 0
74 71 -73 0
74 -72 75 0
76 78 -77 0
79 80 78 0
-77 -80 -78 0
-78 -77 76 0
-77 79 -78 0
76 78 79 0
77 80 79 0
78 79 -76 0
-78 -77 76 0
-76 -79 80 0
-78 -80 79 0
-76 78 -80 0
84 -81 83 0
-82 -84 83 0
81 -84 -85 0
-84 -83 -81 0
81 -83 82 0
85 82 83 0
83 -84 -85 0
82 85 83 0
81 85 -82 0
-84 -81 -82 0
-85 82 83 0
83 -84 82 0
90 87 -86 0
-86 90 -89 0
88 90 87 0
-86 -87 88 0
-88 -89 -86 0
86 89 -87 0
90 87 86 0
-90 86 -89 0
-87 89 90 0
88 -89 -87 0
-89 90 87 0
88 86 -90 0
-93 91 -95 0
-93 -91 -94 0
-91 -93 94 0
-94 92 91 0
92 -91 -93 0
-92 93 -95 0
92 94 93 0
-91 92 -94 0
95 91 -94 0
-95 91 93 0
-95 -94 92 0
91 95 -92 0
-100 96 -99 0
-98 -96 -100 0
98 -99 97 0
-96 97 100 0
-97 99 -100 0
-96 -99 -98 0
-96 -99 -97 0
-99 96 97 0
100 98 -97 0
97 96 99 0
99 98 96 0
-96 100 99 0
-103 -101 -105 0
101 -102 103 0
102 -101 104 0
105 -101 -103 0
105 -103 -101 0
105 -104 -103 0
105 -104 102 0
-101 -104 -103 0
102 -104 -103 0
-101 -103 -104 0
-103 102 -101 0
-101 102 -104 0
-107 108 -110 0
-110 -108 107 0
-110 107 108 0
-110 107 -108 0
108 106 -107 0
-107 106 110 0
-110 109 107 0
109 -108 110 0
107 -106 -108 0
-108 -107 110 0
107 -109 -110 0
-109 110 106 0
-115 111 -114 0
-113 -115 -112 0
-112 111 -113 0
-112 -115 113 0
114 -112 -111 0
113 -111 -112 0
-115 -112 -111 0
115 112 114 0
-111 -114 115 0
-113 -114 111 0
-114 111 -115 0
-113 -115 -114 0
-118 -119 -120 0
116 120 117 0
-116 119 -120 0
-116 119 117 0
-118 -116 119 0
-119 120 -116 0
-116 117 -119 0
120 117 -118 0
-120 117 -118 0
116 -118 117 0
-119 118 117 0
-118 119 120 0
124 -123 -121 0
123 -125 121 0
123 -124 125 0
121 123 -124 0
124 122 -121 0
123 122 -121 0
121 122 124 0
-123 -121 122 0
-125 124 122 0
-121 -125 123 0
124 -123 -122 0
-124 -122 -121 0
-126 128 129 0
129 -126 128 0
-130 -128 -129 0
-128 -126 -129 0
129 -128 126 0
-129 126 -127 0
126 129 127 0
-129 130 -126 0
128 127 -129 0
-126 127 130 0
128 126 -127 0
130 128 126 0
135 132 133 0
135 133 134 0
134 -132 131 0
-134 -135 131 0
-133 -134 -135 0
-131 134 -132 0
135 -134 -132 0
131 -133 134 0
132 -131 -135 0
-134 -131 132 0
134 -132 135 0
-135 132 131 0
-136 -139 137 0
139 -140 137 0
138 -136 140 0
139 -140 136 0
-139 -136 -137 0
-137 -139 140 0
-137 136 -139 0
-136 138 -139 0
140 138 139 0
-138 140 -137 0
-138 -137 -136 0
139 -136 -137 0
-143 142 -144 0
-143 -141 145 0
-143 141 -142 0
-144 142 -143 0
-143 141 -145 0
-142 143 145 0
-144 -143 -142 0
-145 -143 142 0
-144 -145 143 0
-142 -141 -143 0
142 -145 -144 0
-141 143 144 0
-149 -146 147 0
-148 -147 -149 0
146 150 149 0
149 -148 -147 0
146 147 150 0
150 148 -149 0
-148 146 -150 0
-147 -146 -150 0
147 146 148 0
-146 147 148 0
-147 -150 -146 0
-149 -148 146 0
153 152 -155 0
-152 -154 -155 0
153 154 151 0
-152 153 -154 0
155 -154 153 0
155 -154 153 0
-152 153 151 0
-155 153 -151 0
-154 -152 151 0
-151 -155 152 0
152 -153 -151 0
-155 152 151 0
157 156 -160 0
-157 -156 -160 0
157 158 159 0
156 159 157 0
160 158 156 0
160 -159 156 0
-159 -158 -156 0
-159 156 160 0
-157 -156 -160 0
-159 158 157 0
158 157 -160 0
-160 -159 -158 0
165 -161 162 0
-164 -162 -163 0
-163 -162 165 0
-164 162 -161 0
163 161 162 0
-164 -161 165 0
-163 165 -164 0
-161 -165 164 0
163 161 -162 0
-161 162 -163 0
-163 -164 -161 0
164 161 -165 0
169 167 166 0
-168 -167 -169 0
-166 -169 168 0
166 -167 -169 0
167 166 170 0
167 166 169 0
170 166 167 0
166 -168 170 0
-167 169 170 0
166 -168 -170 0
170 167 166 0
-170 -166 -167 0
174 173 172 0
171 -172 173 0
-171 172 173 0
171 173 174 0
174 -172 171 0
-175 -171 -173 0
174 171 -172 0
-173 -175 -172 0
-174 175 -173 0
171 174 -172 0
173 171 175 0
174 -175 -171 0
178 176 -180 0
177 179 178 0
179 -180 177 0
178 -177 -180 0
179 177 -178 0
178 177 -176 0
-179 180 177 0
-178 179 -176 0
-177 178 180 0
-179 180 178 0
179 -180 178 0
178 -177 -179 0
-183 -185 -182 0
182 -185 -184 0
-182 -183 185 0
-181 184 -182 0
-184 182 -181 0
183 184 181 0
184 183 182 0
183 184 185 0
185 181 -182 0
182 -181 -185 0
-181 182 183 0
181 -184 183 0
-186 189 190 0
189 188 -186 0
189 190 -187 0
-188 187 190 0
190 -188 186 0
-190 -186 188 0
-188 -187 189 0
-189 -188 -186 0
-190 186 -188 0
-189 -188 187 0
187 -190 189 0
-190 186 -188 0
-192 -191 193 0
191 192 -194 0
191 193 -192 0
195 -194 -191 0
194 192 195 0
191 -192 193 0
-192 195 193 0
193 -191 -195 0
-194 -191 195 0
-194 195 191 0
-191 195 -192 0
-194 -191 -193 0
-200 197 -198 0
199 197 -196 0
196 198 197 0
199 197 -200 0
197 -199 -196 0
199 198 -200 0
-199 -198 200 0
197 196 -200 0
-197 199 -196 0
198 -199 -196 0
199 197 -200 0
-198 196 -197 0
203 201 -202 0
203 -204 205 0
-202 201 -205 0
201 -205 -202 0
203 205 201 0
-203 -201 204 0
-202 -205 -204 0
202 204 -203 0
204 -202 -201 0
203 201 205 0
203 205 -204 0
204 201 -202 0
-206 -207 208 0
206 208 209 0
209 -208 210 0
207 208 -209 0
207 -209 208 0
-210 208 -207 0
-209 -206 210 0
208 -207 210 0
207 206 -208 0
207 -210 -209 0
-207 -206 210 0
207 206 -209 0
-211 -214 215 0
-214 -212 215 0
213 -211 -214 0
-212 -214 -211 0
215 213 -211 0
211 -213 215 0
211 -215 -214 0
213 214 211 0
215 -214 -212 0
-211 212 -214 0
-213 -215 212 0
-214 211 215 0
-216 218 220 0
218 -220 216 0
219 218 216 0
220 -216 218 0
216 219 220 0
-219 -216 -217 0
-217 216 -220 0
217 -216 219 0
220 -216 -217 0
218 217 216 0
-216 219 -217 0
-216 -217 218 0
221 223 -224 0
-224 225 222 0
-223 -221 -222 0
222 221 -225 0
225 -221 -222 0
222 224 -221 0
-224 221 -225 0
-224 221 225 0
225 -223 -224 0
222 -225 -223 0
-221 -223 -222 0
224 221 225 0
-229 230 226 0
226 -229 228 0
226 228 230 0
226 -227 -228 0
-226 -230 -227 0
-227 -230 229 0
228 -229 -227 0
229 -228 -230 0
230 -228 -229 0
-227 -230 -226 0
227 226 229 0
-227 228 -226 0
-232 -235 -233 0
234 231 -233 0
-233 -234 -235 0
-234 -231 235 0
232 -233 235 0
-233 232 -234 0
-231 -233 235 0
-234 -232 231 0
-232 235 -233 0
-232 -235 234 0
-231 -233 -235 0
233 -234 -235 0
-237 236 238 0
237 239 -240 0
-239 -236 238 0
236 238 -239 0
237 -236 -238 0
240 -239 237 0
-240 237 236 0
237 238 236 0
-237 236 238 0
-238 -236 239 0
-238 237 239 0
237 238 -236 0
243 -242 -245 0
245 244 243 0
244 -245 241 0
-244 245 243 0
243 241 245 0
-241 -245 242 0
245 -242 -244 0
-241 242 243 0
245 243 242 0
243 245 -242 0
-243 241 244 0
245 244 241 0
-246 248 249 0
-250 248 -249 0
-246 -248 -250 0
246 -250 -249 0
247 -249 -246 0
247 250 -249 0
-249 247 -250 0
246 250 -248 0
-249 247 246 0
249 247 -250 0
-246 -248 250 0
-249 248 247 0
-254 -253 255 0
-252 251 255 0
-252 255 -254 0
252 253 -254 0
254 253 252 0
252 -251 -253 0
-254 -253 255 0
-252 255 254 0
-253 251 -254 0
-253 251 255 0
-254 -252 255 0
-251 252 -255 0
259 256 258 0
258 256 260 0
-257 -256 -258 0
256 259 258 0
-256 259 -258 0
-258 257 -260 0
-260 -257 256 0
257 256 260 0
-256 -260 -258 0
-257 -259 260 0
260 258 259 0
258 -256 259 0
-265 262 261 0
264 -265 261 0
262 263 265 0
265 -264 261 0
-262 261 -264 0
-264 261 -265 0
-264 -265 -262 0
-262 264 261 0
-261 -262 -265 0
-263 -265 261 0
265 261 262 0
-262 -261 -263 0
269 266 270 0
270 268 269 0
270 267 -268 0
-268 -267 -266 0
268 270 -266 0
268 -270 269 0
268 270 266 0
-269 -267 266 0
-266 270 -267 0
270 269 268 0
-266 267 269 0
-268 269 267 0
274 273 -272 0
-271 -275 272 0
-274 -275 271 0
-272 273 271 0
-274 -271 -275 0
273 271 -272 0
271 272 -275 0
275 -274 -273 0
275 272 -274 0
275 271 -273 0
-272 -274 271 0
271 273 -275 0
276 -278 -279 0
277 -276 -280 0
-280 -279 276 0
-277 279 276 0
279 278 276 0
280 278 276 0
-279 278 276 0
-278 -279 276 0
278 -277 -279 0
278 276 280 0
-278 279 -277 0
-276 -278 279 0
285 283 281 0
281 -282 -284 0
-283 282 -285 0
282 -281 285 0
281 285 -283 0
-282 -285 -284 0
284 283 282 0
-282 284 -281 0
283 284 282 0
-282 283 -284 0
-281 -285 -284 0
283 281 -282 0
-289 -286 -290 0
290 -288 -287 0
290 287 288 0
-289 -288 286 0
290 -286 -287 0
288 -287 -286 0
-287 288 -289 0
-286 -289 -290 0
-286 -287 289 0
-287 288 -289 0
289 287 286 0
288 289 -286 0
-293 -292 294 0
295 292 291 0
-295 292 -294 0
294 295 -293 0
291 293 -292 0
-295 -291 -293 0
-293 292 -294 0
294 291 -293 0
-293 292 294 0
294 -295 291 0
295 -294 293 0
295 -293 292 0
-298 -296 -299 0
-297 -299 -298 0
-300 -296 298 0
-297 300 298 0
298 296 -300 0
296 298 -300 0
299 300 298 0
299 296 298 0
300 -298 296 0
-298 297 296 0
-297 299 -296 0
300 -296 -298 0
305 -301 -302 0
302 303 305 0
-304 -301 -302 0
-301 -302 305 0
301 305 302 0
-305 -304 -303 0
302 305 -301 0
-304 -305 301 0
-304 -301 302 0
302 305 -303 0
-305 -303 -304 0
-302 -304 303 0
310 308 309 0
-308 309 -310 0
-306 307 -310 0
-309 -310 306 0
-310 309 -308 0
-310 307 308 0
-308 309 -307 0
-310 309 306 0
-306 -309 -307 0
-306 308 -307 0
306 -308 307 0
-306 -310 -309 0
-313 -314 315 0
-313 -311 -315 0
-312 313 315 0
313 311 315 0
-311 -315 -312 0
314 -313 -315 0
-311 -315 313 0
312 -313 315 0
315 -314 -312 0
-313 -314 311 0
-314 311 -312 0
315 311 -313 0
-317 319 316 0
-320 -316 -319 0
-320 -316 -317 0
-320 318 -316 0
320 318 -319 0
320 317 -318 0
316 320 -318 0
-316 319 318 0
-318 317 -316 0
318 316 -320 0
320 317 -318 0
-317 -320 318 0
324 -322 -321 0
321 -324 325 0
323 -324 322 0
324 -325 -321 0
323 322 325 0
325 -324 -322 0
324 -325 322 0
324 325 -323 0
-325 321 322 0
325 323 324 0
321 324 322 0
-322 -321 -324 0
326 328 327 0
-327 326 328 0
-326 327 328 0
328 -327 326 0
-328 330 -329 0
-327 -329 -326 0
-328 -326 -330 0
-326 -330 327 0
327 -329 -330 0
329 -327 328 0
326 -327 -330 0
329 330 328 0
335 331 -334 0
333 -335 331 0
334 -335 333 0
335 331 333 0
-332 -335 333 0
331 -334 332 0
334 332 331 0
333 331 332 0
331 333 332 0
333 -335 -334 0
-331 -332 -335 0
-334 -333 332 0
-338 -336 339 0
339 336 337 0
337 339 340 0
337 -340 -338 0
-339 -340 336 0
-337 339 338 0
340 337 -338 0
338 -337 -336 0
338 339 337 0
-336 -340 -337 0
-339 -337 -340 0
338 -340 339 0
-343 344 -342 0
-345 343 342 0
-342 -341 -345 0
345 344 341 0
341 -345 -342 0
-345 341 -343 0
-345 341 -343 0
344 342 -343 0
-345 -341 -343 0
-341 344 342 0
344 -343 -345 0
345 -341 344 0
350 -346 349 0
349 347 348 0
347 349 -348 0
-350 347 -349 0
-348 347 -349 0
-348 -349 -350 0
347 349 -348 0
348 347 -349 0
-350 349 347 0
349 347 -348 0
346 -348 -350 0
349 350 -346 0
-355 -354 -352 0
353 351 352 0
351 354 352 0
354 351 352 0
355 -352 354 0
352 -355 -354 0
-354 -355 352 0
-353 354 351 0
-352 -355 353 0
-351 354 352 0
-355 -352 354 0
-355 353 -352 0
1 -6 0
6 -11 0
11 -16 0
16 -21 0
21 -26 0
26 -31 0
31 -36 0
36 -41 0
41 -46 0
46 -51 0
51 -56 0
56 -61 0
61 -66 0
66 -71 0
71 -76 0
76 -81 0
81 -86 0
86 -91 0
91 -96 0
96 -101 0
101 -106 0
106 -111 0
111 -116 0
116 -121 0
121 -126 0
126 -131 0
131 -136 0
136 -141 0
141 -146 0
146 -151 0
151 -156 0
156 -161 0
161 -166 0
166 -171 0
171 -176 0
176 -181 0
181 -186 0
186 -191 0
191 -196 0
196 -201 0
201 -206 0
206 -211 0
211 -216 0
216 -221 0
221 -226 0
226 -231 0
231 -236 0
236 -241 0
241 -246 0
246 -251 0
251 -256 0
256 -261 0
261 -266 0
266 -271 0
271 -276 0
276 -281 0
281 -286 0
286 -291 0
291 -296 0
296 -301 0
301 -306 0
306 -311 0
311 -316 0
316 -321 0
321 -326 0
326 -331 0
331 -336 0
336 -341 0
341 -346 0
346 -351 0
