p cnf 220 937
97 136 71 0
-186 217 78 0
197 -101 87 0
176 -218 28 0
111 -38 71 0
98 -110 81 0
-130 -200 61 0
-159 -1 102 0
148 -56 -130 0
-134 9 110 0
-190 -116 -107 0
124 -57 153 0
-182 162 131 0
-121 -118 -125 0
25 -87 -96 0
-202 -172 42 0
-176 115 -53 0
-54 -99 186 0
-29 216 -60 0
-70 -54 -204 0
-119 169 33 0
111 -58 34 0
153 -141 105 0
120 103 3 0
-81 -110 -183 0
-214 -205 -165 0
30 219 -178 0
122 -86 -39 0
-129 -85 -132 0
141 -88 -101 0
145 128 185 0
-187 178 164 0
31 -205 113 0
-89 -43 5 0
133 -216 210 0
-155 -135 92 0
79 -188 -16 0
48 52 -129 0
-215 -91 42 0
-26 -218 61 0
160 -202 -167 0
220 186 -177 0
150 -180 190 0
80 -42 20 0
-27 -162 153 0
-127 157 78 0
28 191 75 0
-176 185 -53 0
98 -176 104 0
-172 -44 118 0
-32 155 134 0
-174 -162 143 0
31 151 173 0
-147 34 -28 0
20 193 -95 0
-173 -157 76 0
71 141 132 0
124 215 142 0
65 -182 219 0
71 -24 61 0
-218 -52 -76 0
-11 198 146 0
-219 -89 114 0
-26 -116 -37 0
-141 219 110 0
165 -128 -143 0
-196 -39 160 0
-90 218 11 0
42 174 -49 0
-215 134 -28 0
-184 107 83 0
32 213 -117 0
114 64 -46 0
-195 108 -142 0
-178 220 -131 0
114 62 -99 0
-137 106 144 0
212 -193 -69 0
-156 153 31 0
119 -85 -187 0
-2 -6 23 0
50 61 62 0
-41 211 -69 0
64 -87 -125 0
-83 -32 177 0
-181 119 163 0
-147 114 -144 0
112 119 -106 0
-82 -132 -29 0
27 194 116 0
-90 191 -125 0
-140 141 -18 0
-61 -177 102 0
-93 22 8 0
215 -13 19 0
151 67 211 0
-30 -99 -50 0
-187 -215 -150 0
52 148 -200 0
63 102 -46 0
109 69 -204 0
41 169 -12 0
17 -23 -94 0
-41 62 -150 0
13 137 -131 0
-179 -147 -207 0
-198 -108 -55 0
14 220 9 0
-36 -19 68 0
-99 -107 190 0
138 158 -66 0
-201 117 -154 0
54 99 209 0
-19 -208 -73 0
-61 120 183 0
123 -36 -192 0
-93 -141 -169 0
-219 -104 -94 0
-56 -140 -184 0
135 203 16 0
200 -96 -83 0
-78 -143 70 0
115 119 146 0
92 -108 126 0
97 -200 154 0
-145 -180 171 0
99 -106 -125 0
-9 32 184 0
59 148 -74 0
66 -113 -98 0
77 -114 5 0
-143 193 64 0
-165 -54 -127 0
-165 -167 -24 0
-80 216 -168 0
-110 80 1 0
177 -170 -125 0
84 -146 -177 0
-107 146 -154 0
-88 -69 150 0
-124 -31 80 0
-10 -133 45 0
174 118 61 0
-60 -18 206 0
139 -95 -201 0
90 15 102 0
-210 73 -70 0
92 118 43 0
203 -176 13 0
-139 -60 -214 0
87 29 -141 0
101 200 -115 0
43 34 39 0
-186 41 162 0
-40 -196 -75 0
-156 -32 -169 0
-166 131 3 0
96 -140 106 0
196 -194 124 0
216 32 -95 0
94 -22 -204 0
-20 16 172 0
-23 -42 205 0
181 175 -137 0
-155 -212 -38 0
-47 132 158 0
193 30 -170 0
-154 193 -151 0
185 190 88 0
85 90 -190 0
214 215 -15 0
148 -132 113 0
102 -178 -147 0
136 -18 -180 0
-114 65 64 0
142 90 216 0
-189 59 13 0
-45 205 -142 0
-159 -133 -220 0
2 91 130 0
70 -174 57 0
-142 -125 -153 0
186 50 -145 0
-66 -207 110 0
167 -155 20 0
36 -72 214 0
190 -93 -218 0
167 51 -14 0
-127 -102 39 0
-108 -209 -1 0
85 89 -17 0
151 -68 118 0
87 30 -181 0
-107 -134 62 0
39 167 72 0
6 -80 186 0
25 -38 -118 0
6 23 64 0
30 -184 -171 0
74 60 -178 0
99 -120 -202 0
-106 -72 -166 0
-67 -199 90 0
-173 114 104 0
-209 -21 -194 0
111 90 23 0
100 184 71 0
-78 -116 -157 0
-153 130 142 0
-178 15 -22 0
-83 20 125 0
148 44 -187 0
-141 178 -27 0
-100 197 103 0
-101 -41 -209 0
171 -217 -11 0
-49 130 -151 0
185 115 -91 0
146 -153 -132 0
187 62 109 0
199 -72 -27 0
-171 -186 -113 0
-105 67 -158 0
64 -173 89 0
-112 -28 -101 0
183 220 42 0
106 128 -74 0
-27 -54 155 0
58 -82 167 0
149 -187 44 0
-127 45 87 0
139 74 53 0
164 -69 -25 0
24 45 11 0
-68 -13 -91 0
91 -163 -214 0
-148 -11 -34 0
-123 130 -166 0
-76 -216 146 0
116 -19 196 0
98 -132 -51 0
45 -147 -118 0
-102 -132 -78 0
-97 41 -160 0
-36 -120 88 0
181 -148 125 0
169 -200 -33 0
191 75 -175 0
130 -167 -75 0
197 -220 -130 0
74 -153 176 0
-48 67 137 0
-123 -139 -111 0
37 9 77 0
98 -89 212 0
107 21 -16 0
203 -75 199 0
-47 -162 11 0
-126 -23 -157 0
101 -201 57 0
33 185 -220 0
155 178 -168 0
86 127 -151 0
78 -63 -49 0
29 47 149 0
-135 107 -163 0
44 -180 162 0
-119 -148 -73 0
108 -90 -135 0
-163 -17 -156 0
-205 -167 182 0
51 -178 -113 0
185 -34 -148 0
112 -69 -13 0
169 96 110 0
-57 -47 135 0
-210 -116 135 0
116 -95 -5 0
183 152 -126 0
-37 218 141 0
-197 -103 -46 0
177 69 211 0
-92 129 30 0
-85 -75 22 0
-206 -107 -114 0
-191 -60 170 0
-122 108 -52 0
-50 -148 -19 0
101 18 -86 0
133 58 173 0
-67 -210 82 0
-188 78 177 0
-78 158 118 0
-179 159 24 0
103 119 -16 0
139 210 -127 0
162 -195 -138 0
-136 47 87 0
184 -86 196 0
-18 26 192 0
134 -85 63 0
-71 -6 214 0
-97 157 -154 0
200 89 -172 0
48 -218 38 0
-155 20 -16 0
6 80 -16 0
-195 38 5 0
-100 -23 -79 0
-56 134 167 0
-67 175 -131 0
-187 37 -217 0
16 -52 49 0
-129 190 45 0
90 -66 149 0
115 198 -172 0
-73 155 152 0
-59 157 -90 0
-187 -81 -36 0
109 43 -89 0
172 -54 -21 0
6 -66 -146 0
188 17 -61 0
-52 60 210 0
103 -220 -165 0
-77 70 33 0
-137 150 87 0
134 -83 38 0
133 -120 192 0
-60 -32 179 0
198 12 113 0
-138 -216 73 0
-35 -128 -173 0
57 -133 -179 0
-120 152 -209 0
148 189 -191 0
196 184 59 0
197 -9 10 0
116 -6 95 0
-122 132 -155 0
-218 35 52 0
-16 -124 117 0
-113 209 49 0
-42 121 -25 0
-212 -67 197 0
203 -171 -140 0
220 -156 -185 0
161 107 198 0
142 -91 -66 0
-116 -197 153 0
136 198 78 0
-159 52 122 0
182 65 -131 0
127 193 93 0
140 -61 -68 0
-119 -107 -105 0
30 -27 -116 0
210 62 -30 0
61 -138 -4 0
-52 -195 1 0
12 -47 -130 0
-27 178 -106 0
118 -196 80 0
-191 -205 90 0
-22 179 -88 0
11 -179 216 0
-203 47 176 0
199 89 -40 0
210 81 45 0
-57 105 90 0
-51 205 195 0
-117 149 -162 0
46 5 218 0
-122 58 69 0
-54 -198 70 0
31 -195 153 0
-19 -117 204 0
187 -19 -84 0
-8 -112 189 0
-200 -155 -198 0
-79 -106 157 0
-91 116 -44 0
-201 -166 184 0
-101 -136 -89 0
-99 -143 218 0
209 202 -184 0
-197 180 -65 0
63 -139 -74 0
-85 166 53 0
-29 -183 -174 0
193 -94 -8 0
164 -143 -196 0
195 119 -47 0
-85 132 158 0
-87 -115 -152 0
1 -108 -210 0
169 -12 -32 0
-186 164 -66 0
-102 31 48 0
-43 -33 -82 0
35 169 -46 0
-112 190 159 0
155 204 -22 0
-99 43 -76 0
-132 174 13 0
-100 -28 145 0
38 -196 200 0
-192 160 -211 0
42 54 8 0
-23 -115 187 0
208 -9 -68 0
200 -11 156 0
38 -196 211 0
-182 -113 33 0
-9 116 202 0
69 124 -9 0
-2 41 38 0
169 58 -62 0
-12 -33 66 0
24 166 63 0
134 -20 -219 0
137 120 129 0
73 161 180 0
11 172 99 0
121 -190 -80 0
-168 182 152 0
37 -136 3 0
-173 152 -10 0
-15 63 -140 0
42 -132 125 0
-139 130 -173 0
57 -35 -31 0
-63 -91 -60 0
-179 -150 -65 0
-199 163 191 0
5 -85 197 0
68 106 182 0
-34 184 207 0
81 28 -167 0
-46 37 129 0
25 122 -179 0
-174 100 67 0
132 142 198 0
22 -158 27 0
-7 -144 -160 0
130 -212 -193 0
213 75 84 0
86 -117 182 0
-73 97 -27 0
-57 113 174 0
-65 210 118 0
6 -100 218 0
-146 -39 -41 0
-168 71 -1 0
-41 83 -43 0
59 77 217 0
135 63 184 0
-165 17 45 0
-59 88 -212 0
108 -79 -155 0
134 197 41 0
89 -117 -179 0
108 219 163 0
-48 216 167 0
-5 175 214 0
-46 -149 110 0
26 -86 -83 0
125 176 -151 0
34 -102 85 0
-124 27 24 0
196 115 -15 0
101 -109 155 0
138 -26 25 0
-14 -51 59 0
89 -4 162 0
80 159 207 0
49 -144 -125 0
-99 36 -39 0
-79 126 -164 0
-99 -63 -198 0
6 -165 203 0
53 -117 -203 0
70 37 104 0
-205 -47 -104 0
-210 135 4 0
-164 -97 -56 0
-72 99 157 0
-144 88 -4 0
33 -187 -16 0
-159 -58 117 0
109 -204 60 0
84 100 208 0
-146 -83 -96 0
-35 -99 151 0
162 -50 65 0
22 -198 51 0
111 -45 117 0
34 -171 119 0
-47 167 23 0
192 153 -29 0
67 104 -90 0
-77 206 164 0
48 158 19 0
-48 113 190 0
-164 44 56 0
-36 171 144 0
-13 85 208 0
169 116 12 0
14 94 -31 0
-143 179 -23 0
-142 79 119 0
-149 101 -70 0
53 -19 -119 0
-168 57 145 0
-93 -172 -140 0
-122 212 198 0
85 -137 -166 0
89 -147 186 0
102 9 32 0
-109 -39 107 0
101 81 126 0
-32 -167 -14 0
62 101 -36 0
-53 58 -99 0
-193 142 144 0
162 -190 129 0
85 -135 163 0
-51 -64 98 0
-114 -94 -124 0
-21 2 10 0
-78 21 -72 0
155 -139 -44 0
-143 118 65 0
197 8 -168 0
-127 172 -10 0
-34 -138 7 0
-217 -201 -171 0
35 -1 -24 0
-4 -10 39 0
-101 138 131 0
165 -197 157 0
-144 66 172 0
25 -178 97 0
-87 54 61 0
-211 -50 212 0
-54 -145 169 0
-63 110 -82 0
-33 -28 -135 0
136 -38 -67 0
-162 153 147 0
-155 -130 77 0
72 183 -75 0
213 -31 -98 0
-141 6 -4 0
52 78 91 0
157 -130 68 0
183 -82 -33 0
197 -163 -1 0
114 192 183 0
153 215 -123 0
-42 -84 -193 0
96 -48 -73 0
218 205 16 0
156 39 -73 0
-99 23 -146 0
85 32 155 0
176 175 -179 0
165 166 158 0
-26 65 102 0
-47 70 -68 0
-21 131 -114 0
-112 -59 -151 0
9 -72 -57 0
-51 -32 6 0
176 -4 51 0
-96 -118 -43 0
30 -170 183 0
-73 -27 -71 0
-60 145 40 0
152 17 -143 0
-192 -90 -189 0
205 76 -56 0
81 -70 -137 0
-144 42 34 0
-154 30 -145 0
111 120 78 0
148 137 101 0
125 -98 19 0
40 -135 84 0
-186 -106 30 0
22 -163 -151 0
-89 -57 -17 0
-184 -67 -71 0
-180 138 160 0
-116 139 155 0
78 161 -33 0
68 -149 18 0
178 123 -210 0
-4 -210 96 0
50 188 38 0
-178 -108 54 0
54 -183 -29 0
159 203 -149 0
205 26 -146 0
144 179 162 0
-164 124 59 0
-45 144 180 0
-136 26 -197 0
-155 -194 196 0
-25 -122 151 0
-95 179 41 0
193 -35 -125 0
-18 92 -100 0
-214 -58 -41 0
-65 -42 132 0
-3 97 -161 0
134 -147 -69 0
102 42 12 0
186 -5 -206 0
-114 112 5 0
18 217 33 0
-202 30 -165 0
-103 -186 -160 0
-126 142 -78 0
-1 -13 -156 0
30 139 -211 0
51 -98 -152 0
124 41 129 0
99 -156 95 0
-124 -125 119 0
191 -106 -32 0
94 -124 -22 0
120 172 87 0
103 -109 -38 0
169 -146 -195 0
-43 -198 90 0
93 -214 -171 0
-117 -8 -94 0
153 135 -173 0
-163 102 111 0
-215 -167 65 0
-175 -56 197 0
204 62 -182 0
-192 14 -106 0
139 169 -79 0
57 103 65 0
-23 213 71 0
13 75 -149 0
217 10 -192 0
8 -161 22 0
-76 -16 206 0
60 -215 -24 0
103 54 -44 0
86 208 -34 0
-27 -37 155 0
-31 118 82 0
-61 11 156 0
-78 68 72 0
211 -15 104 0
139 132 159 0
88 -27 -201 0
-98 53 11 0
-3 23 -99 0
7 -150 -20 0
-44 -50 63 0
-88 -155 10 0
170 -16 215 0
-84 81 148 0
-94 -121 125 0
-84 -62 -147 0
11 -180 -39 0
139 79 112 0
200 2 194 0
198 13 -43 0
64 25 -175 0
-163 -126 -82 0
148 211 106 0
164 -61 -149 0
106 -26 146 0
-118 -182 -66 0
-123 -152 219 0
211 6 99 0
-158 -146 96 0
-174 -124 144 0
172 118 -146 0
-180 139 161 0
-94 183 6 0
15 58 187 0
156 -15 78 0
-114 -120 135 0
92 -174 60 0
-77 -62 -203 0
-153 -61 48 0
-159 -69 -10 0
-113 -90 -81 0
-189 168 -200 0
165 141 -201 0
-155 -116 185 0
-52 -39 -7 0
-118 15 50 0
-84 168 -3 0
14 104 4 0
-33 -75 198 0
101 119 29 0
184 178 164 0
206 169 163 0
45 64 -181 0
51 143 -176 0
62 24 -11 0
167 -62 28 0
-125 1 31 0
-98 -118 94 0
-45 -28 -152 0
167 74 -72 0
-214 -81 93 0
-91 218 174 0
-179 62 -219 0
66 -164 -79 0
-30 -49 174 0
-172 51 -83 0
79 -207 -184 0
-34 -63 -101 0
-11 118 -104 0
20 98 106 0
119 14 21 0
-91 87 -111 0
-79 13 195 0
-134 212 -205 0
187 -53 44 0
-157 -174 57 0
-36 90 -24 0
210 74 188 0
-54 -86 -142 0
-184 99 146 0
-153 54 107 0
-188 219 -206 0
-218 -78 -57 0
88 118 74 0
-16 -182 -119 0
-40 -178 -21 0
-57 -106 -133 0
-216 20 128 0
-124 -51 97 0
68 138 113 0
-94 -107 -164 0
-156 147 -143 0
183 -63 186 0
-27 -44 57 0
-122 55 24 0
206 -144 134 0
28 183 65 0
-52 206 -66 0
47 124 211 0
-215 -166 105 0
153 199 76 0
-167 -40 104 0
-99 -174 153 0
159 -171 24 0
103 158 75 0
-167 -54 -97 0
82 170 -22 0
-94 196 55 0
37 43 14 0
-1 -51 -187 0
-89 184 -127 0
172 115 202 0
114 -101 -93 0
118 27 88 0
51 -20 43 0
61 70 25 0
99 -209 70 0
113 219 -134 0
158 45 -76 0
-148 -33 183 0
-197 -143 -171 0
145 -148 -196 0
-87 -99 52 0
124 -180 183 0
68 -56 -74 0
-10 77 -4 0
-213 76 216 0
-184 89 -217 0
161 -194 -40 0
20 179 -159 0
27 157 86 0
190 -101 191 0
-61 15 -89 0
-179 137 157 0
-61 77 209 0
-123 170 -44 0
65 -58 103 0
178 155 127 0
13 168 50 0
-76 -127 -12 0
11 -162 -219 0
59 -18 -220 0
-10 152 -84 0
-83 -103 117 0
-25 -66 -37 0
57 67 -142 0
129 -123 177 0
-161 -136 -187 0
214 -114 199 0
133 218 -77 0
-147 135 132 0
-19 17 111 0
74 -7 35 0
115 -36 67 0
57 26 47 0
-23 143 -115 0
150 211 5 0
17 -70 -21 0
183 2 -144 0
-146 60 5 0
108 -57 132 0
137 -97 -145 0
-206 147 51 0
-192 180 -128 0
18 -131 -22 0
86 -49 55 0
128 -71 165 0
84 14 46 0
36 -52 -131 0
-211 198 -21 0
8 42 -210 0
178 -11 -27 0
-171 -210 -34 0
-204 -92 112 0
-106 195 193 0
-4 -19 60 0
13 161 42 0
196 48 88 0
-70 83 4 0
89 78 -153 0
-158 -31 -117 0
-95 167 213 0
-8 148 -59 0
-162 -78 -202 0
113 183 -203 0
-207 -132 125 0
125 -194 130 0
183 -121 -73 0
14 -160 -74 0
102 -43 191 0
-76 -21 -73 0
21 -204 159 0
155 143 -218 0
-89 -94 81 0
-5 88 207 0
14 -102 82 0
28 -115 72 0
-189 110 -106 0
-109 -15 -166 0
-129 208 177 0
-167 158 50 0
-98 -133 -88 0
155 27 94 0
123 44 -55 0
220 -8 112 0
-62 97 -67 0
49 63 -99 0
44 -145 137 0
124 -9 204 0
133 12 118 0
129 -145 -139 0
-31 52 -203 0
-63 78 198 0
-50 214 184 0
5 -114 16 0
25 -1 159 0
-21 190 -85 0
-156 -215 88 0
-177 48 26 0
82 -24 167 0
-29 200 174 0
-22 -35 -127 0
121 179 154 0
-73 115 191 0
62 146 -161 0
-115 43 -54 0
-12 -137 -90 0
-129 -10 3 0
-75 -116 -139 0
-37 163 -164 0
166 206 -152 0
85 -3 -216 0
70 -98 79 0
178 30 208 0
-40 -10 79 0
-169 -148 177 0
26 147 41 0
-184 152 214 0
-42 -89 -220 0
-94 -4 90 0
-35 -121 -12 0
119 137 -51 0
-149 175 -70 0
-129 -219 133 0
75 40 54 0
46 103 -128 0
50 -34 -157 0
-129 -189 -169 0
-66 -46 -158 0
121 164 -188 0
8 -134 -94 0
131 179 -1 0
186 3 -163 0
218 -181 -131 0
32 -178 188 0
8 39 -90 0
-189 -118 149 0
40 -45 130 0
-121 -136 -41 0
-198 -189 50 0
206 157 -31 0
-196 84 -150 0
135 -67 -133 0
91 -155 -44 0
110 85 -130 0
102 -89 -141 0
28 -170 64 0
35 189 5 0
15 -128 -101 0
-111 -80 -112 0
170 -17 -209 0
-200 66 -128 0
162 -59 42 0
167 -4 -149 0
-30 132 -124 0
-149 -133 -109 0
-83 -101 87 0
108 89 141 0
-163 -116 -97 0
-54 181 -192 0
-68 -27 -17 0
-36 2 6 0
-174 8 185 0
