p cnf 395 1026
-3 -1 -4 0
-5 -4 -1 0
5 -1 -4 0
-2 3 -1 0
3 2 4 0
-3 5 2 0
5 -4 -1 0
2 1 4 0
-5 4 -3 0
-1 -3 -4 0
4 2 -5 0
-2 -5 4 0
8 7 9 0
-9 -10 -6 0
9 8 -10 0
-8 -7 6 0
10 -6 7 0
-6 -10 7 0
10 8 9 0
8 7 -6 0
-6 -10 -8 0
8 7 -10 0
7 6 -8 0
9 -8 7 0
-15 13 11 0
-13 15 11 0
-11 14 -13 0
-14 15 12 0
-12 14 -11 0
-11 -12 -14 0
-12 14 -15 0
-12 13 -15 0
-14 -15 -12 0
-13 14 -15 0
-14 -11 -13 0
12 -15 14 0
16 20 17 0
-18 19 16 0
-17 -18 19 0
17 -19 16 0
-16 18 17 0
18 -20 -17 0
20 -18 -16 0
18 20 -17 0
17 -16 -18 0
-20 16 17 0
-19 17 -18 0
-20 19 16 0
24 -23 -21 0
-25 -23 22 0
-21 -23 -25 0
-21 -22 25 0
-21 -24 23 0
-22 -25 -23 0
-25 -21 -23 0
21 -23 -24 0
21 24 -22 0
22 -23 -21 0
23 -24 22 0
-24 -22 25 0
-30 -28 -27 0
-30 28 27 0
-27 -29 -26 0
30 28 -29 0
28 -30 -27 0
29 -27 28 0
27 -28 -29 0
28 -30 -27 0
-26 -28 -30 0
-26 29 30 0
27 -28 -30 0
28 -27 30 0
35 -34 32 0
32 33 -35 0
-34 -32 -31 0
35 32 -34 0
32 35 -31 0
34 -35 32 0
35 -34 33 0
-33 34 32 0
-34 -33 -31 0
35 34 32 0
31 34 33 0
34 -35 -31 0
-38 40 -39 0
-37 36 -39 0
-37 38 39 0
-38 36 40 0
-36 40 37 0
39 -38 -40 0
38 36 37 0
-36 -37 39 0
-38 36 37 0
-38 -40 39 0
-37 40 39 0
-36 -38 -37 0
45 44 41 0
-44 45 -42 0
-45 -42 43 0
-41 45 42 0
-42 44 -41 0
-43 -45 42 0
-41 -42 -44 0
45 44 -43 0
45 -42 44 0
-45 -41 42 0
43 -45 41 0
-42 45 -44 0
48 -46 -47 0
50 -48 46 0
-46 -47 50 0
-46 -47 48 0
-46 -48 -49 0
-47 46 48 0
48 47 -50 0
-49 46 -47 0
-48 -50 -46 0
49 -47 -48 0
-47 49 48 0
46 -49 -47 0
51 53 54 0
52 55 -54 0
52 -54 51 0
53 -51 54 0
52 -54 53 0
52 51 -54 0
-53 51 54 0
52 -55 51 0
-54 -53 51 0
-52 54 51 0
-51 -53 55 0
-55 -51 -53 0
59 -58 56 0
-58 56 60 0
56 -58 -59 0
-58 -56 57 0
-60 -56 -58 0
57 -58 -60 0
58 57 60 0
-57 -56 60 0
60 59 58 0
-56 -59 -60 0
-57 -56 -59 0
59 57 60 0
-61 63 64 0
62 -61 63 0
-65 -63 62 0
-65 63 62 0
64 63 62 0
61 -63 64 0
-62 -65 -63 0
62 61 -64 0
-61 65 -64 0
61 -62 -64 0
65 -62 -61 0
-63 64 -61 0
-68 -66 -67 0
66 -69 67 0
68 69 -70 0
70 67 -68 0
69 -68 -66 0
-70 66 68 0
70 -67 69 0
-66 -67 -69 0
-68 -69 -70 0
-69 66 70 0
-66 -68 69 0
-69 66 68 0
74 71 -72 0
-73 -75 -71 0
-75 -71 -73 0
-71 72 -73 0
74 72 -71 0
-73 -72 74 0
75 -73 72 0
71 -74 -72 0
-73 74 75 0
71 72 -75 0
-74 -73 75 0
75 74 72 0
77 -79 -76 0
-79 -78 80 0
79 77 76 0
80 -77 78 0
-78 77 80 0
76 -78 -77 0
-78 77 -80 0
-80 -77 78 0
-77 79 78 0
-77 76 80 0
-78 77 76 0
-76 78 77 0
-85 -82 81 0
-84 -82 81 0
-81 -82 -84 0
-82 85 -83 0
-82 84 83 0
-82 81 -85 0
-83 81 -85 0
84 -85 82 0
82 84 -83 0
-81 83 -85 0
-82 85 -81 0
82 83 84 0
-88 -90 -89 0
-87 89 -90 0
87 88 -90 0
86 88 -90 0
-88 -89 -86 0
86 89 -88 0
89 -87 90 0
89 90 88 0
-86 89 88 0
-88 -87 90 0
-86 90 -87 0
86 -90 89 0
93 -92 95 0
-93 -92 -95 0
95 91 -93 0
-92 91 -95 0
91 93 -94 0
-93 -92 -91 0
95 -94 -92 0
92 -93 91 0
94 95 93 0
-92 93 -91 0
93 -91 94 0
94 -91 -93 0
99 97 98 0
96 99 97 0
97 98 96 0
-98 -96 97 0
-96 99 100 0
-99 -98 100 0
-99 -100 -97 0
-100 97 -98 0
98 96 -100 0
-97 -96 -99 0
98 -99 -97 0
96 100 -97 0
103 101 104 0
101 -103 102 0
-104 103 -101 0
105 -104 103 0
-102 -101 104 0
102 -105 -104 0
102 -105 -103 0
-104 -101 -103 0
-105 -104 -101 0
102 -104 -103 0
103 -104 105 0
-104 102 -105 0
-110 106 -107 0
-108 109 -106 0
-110 106 108 0
-107 -110 -106 0
-106 109 110 0
-108 109 110 0
-106 108 -109 0
-106 -109 108 0
107 -110 -108 0
110 -107 108 0
-107 -108 106 0
-108 110 -106 0
-111 -114 115 0
112 -113 115 0
115 -113 -111 0
-114 -111 115 0
113 111 -115 0
-113 -111 114 0
114 112 113 0
-113 112 115 0
-112 111 -113 0
115 114 -111 0
113 112 114 0
-115 -114 113 0
-120 -118 -117 0
116 120 -119 0
-120 119 116 0
-119 117 -118 0
120 -119 -116 0
116 119 118 0
-117 -116 119 0
118 -117 119 0
118 -120 117 0
119 120 -117 0
119 -116 -120 0
-118 117 -119 0
-121 125 123 0
-124 121 -123 0
-123 -125 -122 0
-123 121 124 0
124 123 122 0
-122 121 -124 0
-121 -125 -122 0
-125 122 -124 0
121 -125 123 0
-124 -121 -123 0
-121 125 -122 0
123 122 124 0
-129 -128 126 0
-130 -129 128 0
-130 -127 -128 0
129 -130 127 0
-128 127 -129 0
130 127 126 0
126 -130 128 0
-127 126 129 0
127 -126 130 0
129 -128 -126 0
129 -127 128 0
-127 -129 128 0
-135 132 134 0
-132 -134 135 0
132 -131 -134 0
131 -134 133 0
134 135 -132 0
-131 -134 135 0
135 133 131 0
-135 133 134 0
-131 132 -134 0
-132 135 134 0
131 132 -134 0
-134 -131 135 0
-138 136 137 0
-136 140 139 0
-140 -136 137 0
-138 137 136 0
137 138 136 0
-137 139 138 0
-140 137 139 0
136 137 138 0
-136 137 -140 0
136 137 -138 0
136 137 -140 0
137 -139 140 0
-143 142 -144 0
144 -143 -145 0
-141 142 143 0
-142 141 143 0
-145 141 -142 0
145 141 -144 0
-141 143 -145 0
-143 -144 141 0
-145 142 143 0
141 -143 -142 0
-141 -144 -142 0
144 143 141 0
-148 -150 149 0
-149 146 147 0
-150 147 -149 0
149 -148 -147 0
148 -150 149 0
146 147 -150 0
-147 -146 -149 0
-149 150 147 0
-146 148 149 0
-149 148 -150 0
149 -146 -148 0
149 150 146 0
155 154 153 0
155 154 -152 0
152 -154 153 0
-153 -151 -154 0
152 -153 151 0
-151 154 155 0
154 155 -151 0
151 155 154 0
152 151 155 0
153 -154 152 0
-155 -151 -153 0
-152 153 -151 0
-158 160 -159 0
156 159 -160 0
-160 156 -157 0
160 159 156 0
157 -158 160 0
156 -157 -158 0
156 -157 -160 0
160 -158 -156 0
156 -157 159 0
160 -157 159 0
-160 -158 157 0
-160 -156 -157 0
165 -161 -164 0
165 -162 164 0
-162 -164 -161 0
165 162 -161 0
-161 164 -163 0
-161 162 164 0
164 -162 -163 0
161 -162 -164 0
-164 -163 -162 0
-164 161 -163 0
-163 -161 -165 0
162 -165 164 0
-169 170 -166 0
-169 168 -167 0
168 169 -167 0
169 -168 170 0
170 166 -167 0
170 167 166 0
-167 -170 -168 0
-169 168 167 0
-170 -166 169 0
167 -169 -168 0
168 -167 -170 0
167 -166 170 0
-173 175 -171 0
175 -174 173 0
-175 -172 174 0
175 174 -172 0
-171 173 -174 0
174 -173 175 0
-174 -171 -172 0
172 -174 175 0
174 175 -172 0
-174 -175 -173 0
172 -175 -174 0
-171 -173 175 0
-176 -179 -180 0
177 180 179 0
-176 178 -177 0
-178 -176 180 0
176 180 -178 0
177 -179 -176 0
177 -180 -178 0
178 177 -179 0
-176 180 179 0
178 179 -180 0
-179 -180 178 0
-179 -177 178 0
-184 181 -183 0
182 184 183 0
-181 -183 -185 0
181 184 -182 0
-184 -181 183 0
-182 181 184 0
182 185 181 0
182 -185 184 0
185 -182 181 0
183 181 184 0
-183 -182 -181 0
181 184 -182 0
-189 -190 -186 0
-187 190 188 0
190 -188 186 0
-190 187 189 0
-186 187 -190 0
190 -189 186 0
-190 -188 187 0
-186 -187 -189 0
-188 -187 186 0
188 -190 186 0
-189 188 187 0
189 187 -188 0
-195 -194 -192 0
-193 -195 -191 0
191 192 195 0
194 -192 -193 0
-194 -191 -192 0
-193 -191 195 0
192 -193 195 0
191 193 192 0
193 -195 -194 0
-193 192 -195 0
-192 -193 195 0
194 -193 195 0
199 -198 -200 0
197 198 -199 0
-196 -198 -200 0
200 197 -199 0
196 200 -198 0
200 -197 198 0
200 199 -197 0
200 -196 197 0
199 198 -196 0
-200 -197 199 0
198 -196 -200 0
197 196 -198 0
-205 204 -201 0
-203 205 202 0
-203 -205 201 0
-201 -202 205 0
-201 203 204 0
-201 -202 204 0
202 -204 -201 0
-203 205 201 0
-204 -203 205 0
-205 203 201 0
203 202 201 0
-205 -202 203 0
-208 210 -206 0
210 -209 208 0
210 207 -206 0
-210 -208 209 0
-210 207 -206 0
-208 207 -206 0
207 210 -208 0
-207 -209 208 0
206 -207 -209 0
206 207 -209 0
210 -206 209 0
-208 210 -207 0
-212 211 214 0
-215 211 -213 0
215 214 -212 0
-214 -212 -215 0
-215 -212 -214 0
215 -212 -213 0
-211 -212 -214 0
-214 212 213 0
212 -214 215 0
212 -213 -214 0
-215 212 -211 0
215 -212 214 0
216 -219 220 0
-218 -216 220 0
219 -217 -216 0
-217 218 216 0
216 -220 218 0
-220 217 -219 0
219 -217 -220 0
216 219 -218 0
217 216 -219 0
218 -220 216 0
-216 218 -217 0
220 -216 -219 0
222 -223 225 0
221 -225 223 0
221 225 -224 0
223 -225 222 0
222 223 225 0
-224 -223 -221 0
-221 224 -225 0
-224 -221 223 0
223 -222 221 0
225 224 -221 0
-225 224 -222 0
-221 222 225 0
226 -230 -227 0
230 227 -228 0
-230 -226 -229 0
228 -230 227 0
-230 228 -226 0
227 229 228 0
227 -226 -229 0
-229 228 -230 0
228 -226 -230 0
230 226 227 0
-226 -227 230 0
-229 230 228 0
-234 232 231 0
-231 -232 -235 0
231 -235 232 0
234 233 -231 0
-235 234 231 0
-233 -235 232 0
234 235 -233 0
-231 -235 -233 0
-232 233 234 0
232 -234 231 0
-231 -235 -234 0
-233 231 -235 0
-239 -237 240 0
240 238 236 0
-240 -237 -239 0
236 -237 240 0
237 236 238 0
-238 239 -237 0
-240 -238 -239 0
236 240 239 0
-239 238 237 0
-239 237 238 0
-238 240 237 0
240 237 -236 0
-242 244 245 0
244 243 -241 0
-241 243 245 0
-241 -244 -243 0
241 -242 -244 0
242 -244 245 0
244 245 -242 0
-242 241 244 0
241 244 245 0
244 241 -243 0
245 -242 -243 0
241 242 244 0
250 247 -246 0
248 247 250 0
-250 246 248 0
-248 -249 -246 0
-249 248 -247 0
-246 248 -247 0
-246 250 248 0
-250 249 247 0
248 -249 -247 0
-248 250 249 0
249 -246 -250 0
248 -247 -246 0
-254 -253 252 0
251 -254 252 0
253 -255 -254 0
-251 -252 254 0
251 -254 253 0
-251 -255 -252 0
254 -255 252 0
-251 -254 255 0
253 252 -251 0
-253 -252 -254 0
-255 251 253 0
-253 251 252 0
256 260 -257 0
-260 256 -258 0
-258 -257 259 0
-259 -258 257 0
-256 259 -258 0
-256 257 -258 0
259 -258 -256 0
-259 -258 256 0
257 -260 -256 0
-259 -258 257 0
259 -260 -256 0
259 257 256 0
261 -265 262 0
261 263 264 0
261 265 262 0
-264 -263 262 0
264 -261 263 0
262 264 -265 0
263 261 262 0
-265 -262 263 0
261 -262 -264 0
263 -262 -264 0
-262 -263 -265 0
-265 263 261 0
269 -270 -267 0
-266 -269 -267 0
267 270 -268 0
-266 -270 -269 0
267 266 269 0
267 -270 266 0
-270 268 267 0
267 -268 269 0
-268 -267 266 0
270 -266 269 0
-267 -270 266 0
-268 270 -269 0
274 -273 -271 0
274 273 -272 0
-273 -272 275 0
274 272 273 0
272 -274 275 0
274 -273 271 0
-272 -274 -271 0
-273 -274 271 0
-273 271 272 0
-272 273 -274 0
275 274 -273 0
273 271 272 0
-277 -280 -278 0
280 277 -279 0
280 -278 -276 0
276 280 277 0
-278 -277 279 0
279 276 -280 0
-276 278 277 0
-280 -277 -276 0
278 -280 279 0
276 -280 279 0
-280 -279 -277 0
280 -276 -277 0
282 -281 -284 0
-283 284 -285 0
285 -284 -281 0
282 284 285 0
283 -281 284 0
285 -283 -284 0
-282 -283 281 0
-284 -285 -283 0
-285 -281 -282 0
285 -281 283 0
285 283 -282 0
284 282 -281 0
-287 -290 -288 0
-286 -290 287 0
289 -288 287 0
-286 290 288 0
-289 288 -287 0
-288 289 287 0
290 288 -286 0
287 290 -288 0
-287 288 289 0
-290 -289 -287 0
-290 289 288 0
288 -289 -286 0
-292 -293 294 0
292 293 -295 0
295 293 -291 0
-292 293 -295 0
-293 294 -292 0
-294 -295 292 0
291 294 292 0
291 -292 -293 0
-295 291 292 0
-295 -294 291 0
292 -293 295 0
-294 293 292 0
-297 -296 -300 0
299 296 -297 0
297 298 296 0
-296 -298 -300 0
296 298 297 0
298 -296 -299 0
-298 -300 297 0
297 296 299 0
-299 -297 300 0
297 -299 -296 0
-298 299 -297 0
300 -298 297 0
-301 -304 -302 0
-305 -302 301 0
303 301 302 0
-301 -305 -302 0
-305 -302 303 0
-304 301 -303 0
302 305 301 0
301 -303 -304 0
303 -301 302 0
302 -301 304 0
-303 302 -304 0
303 305 -304 0
-307 -310 -306 0
-306 -308 307 0
309 306 -310 0
310 -306 -309 0
309 -306 307 0
-306 307 -310 0
-309 -310 308 0
-308 309 307 0
-307 -309 310 0
309 307 308 0
306 -308 -307 0
307 310 -306 0
-311 312 313 0
-315 312 314 0
315 314 -311 0
-313 -312 -314 0
312 315 -313 0
-312 -311 -314 0
-314 -312 315 0
313 311 -312 0
-314 312 -311 0
-313 311 314 0
-314 312 311 0
311 312 -315 0
318 -319 -316 0
316 317 319 0
-317 319 -316 0
-316 -318 317 0
320 318 319 0
318 -316 -320 0
-320 317 -318 0
320 318 317 0
-317 320 318 0
320 -316 317 0
-320 316 318 0
-319 -320 -318 0
323 325 -324 0
-325 -321 -322 0
-321 325 323 0
323 321 -325 0
-322 -324 -321 0
-324 322 321 0
-323 -325 324 0
-325 -324 -321 0
-325 324 -321 0
324 323 322 0
321 -323 -324 0
324 321 -322 0
326 -330 328 0
-328 327 -329 0
327 -328 329 0
-329 -328 -330 0
-330 -326 -329 0
330 -326 -329 0
327 328 330 0
326 -329 328 0
-328 -329 -330 0
327 -329 326 0
-330 329 326 0
327 329 -326 0
-335 -334 -332 0
334 -331 332 0
332 333 -335 0
333 334 332 0
331 -332 335 0
-332 -333 334 0
-331 334 -333 0
-334 -335 332 0
-332 -334 331 0
333 335 331 0
-335 334 -332 0
-333 334 -332 0
339 336 338 0
-339 -338 337 0
-338 339 337 0
338 340 339 0
339 340 -336 0
-340 337 336 0
339 -338 -340 0
-339 -336 -337 0
339 -338 -337 0
-339 340 337 0
-339 -338 -336 0
339 336 -338 0
-343 -345 342 0
-342 -344 341 0
344 -345 -342 0
345 -341 -342 0
-344 345 -341 0
345 -342 343 0
-345 344 341 0
342 -341 343 0
-345 -342 -341 0
344 341 342 0
343 -341 -344 0
342 343 344 0
-347 -349 350 0
347 348 -349 0
-347 346 -348 0
348 347 349 0
-349 -347 -350 0
-347 -348 -350 0
346 -349 350 0
350 -347 349 0
-348 -349 347 0
350 348 349 0
-346 348 349 0
350 349 347 0
-351 -352 353 0
-351 355 -353 0
351 355 353 0
353 -352 -354 0
351 352 -353 0
355 -351 -352 0
-351 -352 355 0
-354 355 -352 0
-351 355 354 0
355 351 354 0
-354 -351 355 0
-355 -351 -353 0
360 358 -359 0
-357 -360 359 0
357 -358 -359 0
-357 360 -356 0
-358 -359 -356 0
356 359 -357 0
358 -359 -357 0
-358 360 -357 0
-357 -358 360 0
-359 -360 358 0
357 359 360 0
356 357 360 0
362 -363 365 0
-364 361 363 0
-361 364 -362 0
363 -361 -364 0
361 -365 364 0
361 -362 365 0
361 362 -363 0
361 363 -362 0
365 -362 364 0
364 361 -362 0
362 -363 -364 0
-363 364 -365 0
367 369 370 0
367 -366 -370 0
370 367 -368 0
368 370 -366 0
369 -366 -368 0
-368 366 367 0
-370 368 -366 0
-367 366 -369 0
-367 -370 -366 0
-370 -369 366 0
-370 369 -367 0
366 -369 368 0
-373 374 -375 0
371 -372 -374 0
371 -374 373 0
-372 371 -374 0
374 -371 373 0
372 -374 -373 0
-372 -371 -375 0
-375 373 372 0
-375 -373 372 0
371 375 374 0
-372 373 -375 0
-371 373 -375 0
-379 378 380 0
-378 379 376 0
-378 380 -377 0
-380 377 -376 0
-380 377 -378 0
377 -380 -379 0
-377 -378 380 0
379 377 -378 0
-379 -377 -376 0
378 380 377 0
376 378 -380 0
-377 -379 -380 0
383 -384 -381 0
382 383 381 0
383 385 -381 0
-381 382 -385 0
-384 -383 381 0
383 385 381 0
-381 -384 -385 0
382 383 -384 0
381 384 383 0
384 -385 381 0
382 -383 385 0
381 384 -383 0
-386 -388 -389 0
-389 -388 -387 0
-386 388 389 0
386 -388 -389 0
387 386 388 0
-389 -387 -386 0
-386 -387 -388 0
-386 -390 387 0
-388 387 390 0
-389 388 -390 0
389 -386 388 0
-388 389 390 0
-393 -395 -391 0
-392 393 -394 0
391 395 -393 0
391 -392 395 0
-395 -392 -393 0
-391 393 -392 0
392 394 393 0
-392 -394 391 0
391 395 392 0
391 -395 394 0
-391 -392 395 0
-391 395 393 0
1 -6 0
6 -11 0
11 -16 0
16 -21 0
21 -26 0
26 -31 0
31 -36 0
36 -41 0
41 -46 0
46 -51 0
51 -56 0
56 -61 0
61 -66 0
66 -71 0
71 -76 0
76 -81 0
81 -86 0
86 -91 0
91 -96 0
96 -101 0
101 -106 0
106 -111 0
111 -116 0
116 -121 0
121 -126 0
126 -131 0
131 -136 0
136 -141 0
141 -146 0
146 -151 0
151 -156 0
156 -161 0
161 -166 0
166 -171 0
171 -176 0
176 -181 0
181 -186 0
186 -191 0
191 -196 0
196 -201 0
201 -206 0
206 -211 0
211 -216 0
216 -221 0
221 -226 0
226 -231 0
231 -236 0
236 -241 0
241 -246 0
246 -251 0
251 -256 0
256 -261 0
261 -266 0
266 -271 0
271 -276 0
276 -281 0
281 -286 0
286 -291 0
291 -296 0
296 -301 0
301 -306 0
306 -311 0
311 -316 0
316 -321 0
321 -326 0
326 -331 0
331 -336 0
336 -341 0
341 -346 0
346 -351 0
351 -356 0
356 -361 0
361 -366 0
366 -371 0
371 -376 0
376 -381 0
381 -386 0
386 -391 0
