p cnf 160 681
129 -18 -10 0
-98 -2 -40 0
-42 -80 -16 0
48 -142 151 0
33 -134 -156 0
-101 -9 52 0
-49 -10 125 0
-8 -108 129 0
-133 -37 108 0
-86 152 -32 0
26 -52 109 0
-62 -114 149 0
28 136 92 0
16 -67 -125 0
91 -1 -108 0
-38 120 133 0
-57 -71 22 0
-79 77 -160 0
14 70 -12 0
-28 90 -80 0
108 84 51 0
63 100 -59 0
41 10 14 0
-50 -135 33 0
157 107 -89 0
-93 -85 103 0
-11 149 -144 0
-15 17 -156 0
-70 -148 85 0
1 111 34 0
24 83 -15 0
-141 79 81 0
-60 79 129 0
-76 24 -104 0
35 104 31 0
155 62 68 0
-14 92 85 0
154 1 49 0
147 22 -30 0
-66 63 160 0
152 -12 43 0
77 -60 125 0
-89 39 23 0
151 -152 -129 0
-102 47 71 0
-38 -14 -98 0
-137 -6 -138 0
-160 2 34 0
145 60 -55 0
-29 121 54 0
-72 -139 -77 0
-143 100 21 0
101 98 128 0
-136 50 -85 0
102 -51 -55 0
135 -149 63 0
-142 -151 31 0
-132 -111 -77 0
158 86 26 0
-53 40 -37 0
148 -59 128 0
12 -2 86 0
-59 91 62 0
67 70 -145 0
-63 23 -8 0
127 48 21 0
-36 -41 108 0
-44 34 83 0
-58 39 134 0
138 71 47 0
-148 -81 123 0
-123 -13 -65 0
-33 -98 20 0
109 42 -30 0
21 10 -66 0
41 85 153 0
84 15 -147 0
96 128 75 0
46 147 96 0
-159 57 -48 0
62 47 -146 0
119 -141 -4 0
-148 64 -143 0
150 117 -77 0
-134 -37 11 0
-72 100 -23 0
115 75 -45 0
159 139 49 0
40 -141 -67 0
-137 121 61 0
-26 -87 -20 0
73 -138 24 0
-66 -36 -115 0
147 -93 69 0
47 11 37 0
-25 -115 119 0
155 82 -25 0
65 -23 73 0
147 -69 24 0
59 154 -112 0
-21 -81 26 0
-80 20 124 0
-65 -111 -80 0
101 -40 144 0
-104 15 -118 0
-99 -136 67 0
-100 -33 -156 0
-122 -30 -96 0
-17 -4 144 0
-106 -64 41 0
115 78 -19 0
110 -132 141 0
-136 62 57 0
157 -110 -70 0
106 139 -113 0
-93 68 28 0
-123 16 116 0
-113 -79 -17 0
-33 25 -110 0
-69 -128 66 0
-70 -53 -28 0
-57 -108 -72 0
-47 136 -113 0
-130 -158 108 0
-24 160 -49 0
15 85 90 0
-134 -118 -32 0
93 -87 152 0
-128 -13 41 0
74 45 119 0
136 20 123 0
-38 -129 94 0
-91 34 96 0
39 -12 8 0
-138 -12 -51 0
-18 -48 -51 0
-123 -110 71 0
23 54 -70 0
104 -21 -30 0
127 -13 133 0
-73 -148 -53 0
82 137 -68 0
-2 -144 -86 0
6 16 -39 0
-43 -79 -40 0
156 -45 122 0
96 120 -17 0
-10 12 45 0
71 -110 45 0
131 -79 148 0
117 139 137 0
-141 -43 -67 0
78 -41 -160 0
-155 40 105 0
-151 -74 122 0
1 115 -53 0
-5 -143 -130 0
78 -85 19 0
9 115 6 0
-96 -17 -138 0
-114 -107 32 0
3 -24 101 0
-1 -11 -124 0
39 -2 124 0
-107 -51 99 0
145 113 -33 0
116 -3 81 0
31 -34 28 0
-21 -103 95 0
-97 114 -30 0
70 -85 5 0
-9 41 2 0
35 -143 -140 0
96 147 -19 0
66 150 64 0
34 129 158 0
82 -30 98 0
82 -19 158 0
-132 66 96 0
-49 127 -42 0
143 -128 2 0
26 -145 20 0
124 45 16 0
-41 137 -151 0
-129 12 41 0
-45 -27 -22 0
153 38 123 0
131 -113 -149 0
-27 143 -95 0
-160 26 146 0
-12 7 -124 0
91 45 9 0
-36 135 116 0
6 122 102 0
-49 -92 155 0
-151 -157 85 0
79 66 119 0
-55 139 19 0
-98 -66 127 0
91 157 -9 0
-145 -154 -30 0
-35 -77 -145 0
59 -108 148 0
-124 -66 90 0
22 1 -125 0
39 65 -35 0
33 -41 74 0
47 -60 69 0
-73 157 32 0
-81 -7 -153 0
64 -82 122 0
-53 -129 30 0
-13 -14 83 0
70 44 28 0
21 146 136 0
-145 -78 -113 0
-56 -106 45 0
-122 -15 -56 0
28 110 -52 0
-30 -76 95 0
-132 -38 -16 0
103 60 -160 0
143 63 -43 0
-133 101 63 0
-145 5 -120 0
-135 147 -128 0
116 80 148 0
28 -59 -41 0
-153 93 -79 0
-117 133 74 0
158 -134 156 0
-77 93 66 0
-42 -69 -3 0
67 102 117 0
58 -59 15 0
135 -109 123 0
-97 -36 -42 0
-40 134 108 0
127 -101 99 0
-30 -150 -52 0
-102 -73 -39 0
-57 60 93 0
-151 -129 -128 0
125 17 -44 0
-97 -75 -101 0
160 65 93 0
-118 -121 32 0
-95 -109 31 0
114 36 1 0
66 18 4 0
-72 -37 -10 0
-4 135 -60 0
122 -145 60 0
-3 147 -76 0
-61 132 15 0
134 24 51 0
-114 -16 -105 0
2 14 -63 0
119 74 120 0
-147 -90 153 0
146 157 -153 0
-87 151 -70 0
-110 -109 -45 0
37 80 -59 0
54 156 -74 0
-53 65 -67 0
73 5 29 0
66 -30 -65 0
-124 -46 78 0
-90 106 -159 0
-73 -53 37 0
-125 102 14 0
13 19 154 0
-15 -140 -149 0
157 92 -52 0
74 -92 107 0
157 57 -20 0
-22 -97 16 0
6 -86 -141 0
-67 -25 -34 0
22 28 -88 0
13 153 -26 0
75 136 117 0
63 97 -70 0
-98 -53 56 0
146 125 42 0
1 151 58 0
43 -36 -150 0
-60 -159 -53 0
124 -126 120 0
-46 -142 -95 0
41 33 48 0
-21 66 61 0
-89 79 -45 0
7 115 18 0
-38 72 -82 0
-18 -109 71 0
-68 -135 101 0
45 -137 140 0
-94 -6 107 0
-83 82 -45 0
-74 119 160 0
-2 -74 79 0
-18 -8 -116 0
-137 116 46 0
131 42 55 0
-4 -35 -78 0
13 56 36 0
-40 64 121 0
102 -39 46 0
-72 24 52 0
-42 -124 -147 0
79 70 -23 0
91 74 27 0
128 48 56 0
141 122 80 0
-49 134 137 0
90 135 -45 0
-48 -11 34 0
65 47 -100 0
-18 100 -36 0
33 57 120 0
23 -110 -116 0
17 37 112 0
14 23 21 0
-106 -122 57 0
-4 65 -101 0
-133 -89 -24 0
-137 86 16 0
-107 -36 -131 0
145 18 52 0
54 134 32 0
91 -103 -139 0
-54 125 -109 0
-85 -80 -116 0
-153 125 -100 0
99 63 33 0
44 -34 154 0
57 -8 32 0
145 -9 77 0
32 -66 94 0
-21 78 32 0
-17 -140 54 0
66 -131 135 0
-125 -18 -127 0
88 116 -154 0
-19 -160 -87 0
-102 -132 -21 0
98 -63 88 0
-60 -116 1 0
145 146 -124 0
126 116 29 0
48 -38 -80 0
-54 16 -62 0
-135 42 131 0
-27 -62 7 0
60 -1 4 0
-128 -91 29 0
92 110 -52 0
-37 -24 70 0
75 -66 49 0
129 -11 72 0
-156 56 -1 0
84 -69 -83 0
137 -131 -65 0
122 -92 -15 0
-34 -104 80 0
110 -108 10 0
-109 144 -79 0
63 -71 46 0
5 30 143 0
82 -72 -63 0
-130 -13 -31 0
-57 85 78 0
-134 122 -58 0
87 35 -34 0
-26 20 -11 0
101 -83 85 0
4 -138 -95 0
-9 84 88 0
92 37 -56 0
-105 -60 106 0
9 128 -120 0
153 -108 -72 0
50 -97 125 0
-112 -38 121 0
134 42 114 0
-21 -91 100 0
159 58 -142 0
-74 -25 68 0
-135 -62 52 0
-158 103 -23 0
-98 12 -29 0
-48 -6 -33 0
109 43 36 0
89 -87 45 0
-64 38 -30 0
46 -109 134 0
-79 -155 22 0
17 -102 -52 0
-129 16 -93 0
103 -33 -153 0
133 -155 61 0
-14 60 95 0
-25 -26 -47 0
119 43 -85 0
53 -46 19 0
-92 75 -5 0
-155 -138 46 0
88 -51 132 0
-61 -109 -110 0
75 -24 135 0
143 -104 -103 0
33 -85 19 0
79 21 10 0
38 146 136 0
159 -109 -30 0
3 -94 132 0
127 110 -134 0
111 -67 51 0
-89 70 -34 0
82 -101 86 0
28 109 58 0
-113 21 122 0
44 137 -6 0
-113 -119 120 0
-76 114 57 0
-133 11 -58 0
64 -139 -15 0
-67 50 -18 0
-128 153 -114 0
-111 -120 -134 0
-67 -141 133 0
-117 61 98 0
68 58 39 0
40 -100 -90 0
121 -29 99 0
-38 122 109 0
8 87 45 0
-136 46 155 0
-98 70 -158 0
5 -54 24 0
62 -110 -97 0
81 25 -156 0
-104 -116 -51 0
-26 -129 -115 0
-72 97 -15 0
1 114 84 0
-61 122 -111 0
97 132 -138 0
-33 -80 -41 0
85 14 138 0
-134 121 116 0
-114 -113 58 0
26 12 -8 0
130 -106 145 0
19 -160 76 0
-99 -107 -96 0
-39 108 96 0
94 -140 118 0
140 50 156 0
132 -36 58 0
-103 -93 -20 0
-75 55 65 0
-65 -18 99 0
79 -92 -143 0
30 27 101 0
17 106 -98 0
-60 155 102 0
25 -62 40 0
91 -8 -74 0
4 129 -69 0
60 93 -99 0
-101 -23 21 0
126 -35 51 0
136 -15 122 0
-140 112 53 0
-52 -4 -25 0
98 -48 -109 0
-11 63 -110 0
-10 -35 -98 0
145 -120 60 0
-45 -146 144 0
17 124 -135 0
68 127 -114 0
98 -148 -63 0
37 63 -39 0
160 40 -1 0
107 119 35 0
7 53 -18 0
-98 107 -159 0
-133 144 -149 0
-154 -29 -150 0
95 -107 -147 0
-77 -155 108 0
103 35 90 0
-21 108 -36 0
12 1 146 0
23 -149 2 0
-94 52 115 0
-8 -86 6 0
1 -11 -3 0
-143 87 89 0
-101 -148 56 0
133 147 -95 0
153 96 -7 0
-125 44 137 0
-24 128 48 0
-25 -119 93 0
-128 -97 89 0
-17 112 -152 0
-10 135 -105 0
10 89 -1 0
72 -59 -87 0
107 -141 75 0
144 -57 130 0
-116 -27 135 0
-16 -98 -81 0
155 86 -39 0
-55 -11 84 0
96 122 -139 0
-79 21 50 0
114 -122 79 0
156 -115 111 0
84 68 -30 0
64 -9 66 0
-139 -156 -119 0
-36 -84 66 0
24 105 44 0
157 -114 -90 0
-88 -46 113 0
-82 -105 30 0
101 6 34 0
68 -123 11 0
62 -59 58 0
-16 -120 8 0
-62 41 38 0
-149 -137 -82 0
48 94 -86 0
34 159 -150 0
151 76 87 0
62 -113 -51 0
131 85 -33 0
102 81 32 0
-32 -90 -9 0
-78 147 -68 0
-48 145 137 0
15 -111 93 0
110 135 75 0
-154 -140 -118 0
54 37 -131 0
49 91 -21 0
-50 -108 -137 0
-48 135 -71 0
61 -70 -33 0
-105 152 97 0
-47 24 7 0
-9 -29 64 0
37 128 -135 0
-48 28 16 0
-41 73 -92 0
3 -2 -120 0
70 25 27 0
67 -110 -37 0
141 128 36 0
-15 93 118 0
-124 -141 -35 0
-149 -32 -155 0
160 -69 84 0
-28 -1 47 0
33 159 -94 0
-43 65 69 0
150 58 64 0
-47 92 59 0
-80 83 160 0
-66 9 12 0
14 -3 -115 0
-119 88 -93 0
150 131 104 0
-136 42 149 0
46 -141 97 0
10 -131 55 0
96 -5 -75 0
148 115 25 0
16 145 -72 0
-157 -34 87 0
-142 90 -37 0
22 -13 36 0
-70 -102 -52 0
64 -139 142 0
34 145 10 0
-126 -86 -157 0
-117 -102 106 0
89 -76 129 0
-54 -124 -91 0
80 15 58 0
-72 40 -83 0
-5 -147 -27 0
-77 126 -133 0
-41 -86 65 0
-89 -23 -124 0
-105 76 -29 0
36 -104 -1 0
-149 -114 122 0
-114 -65 -54 0
54 -9 -115 0
160 -153 -78 0
-35 139 154 0
107 -129 -137 0
-79 -15 -72 0
-40 113 -134 0
-61 72 -79 0
-119 -12 151 0
-100 27 -102 0
151 -132 -39 0
-29 82 -86 0
-155 -134 158 0
114 91 29 0
5 70 52 0
-142 -104 2 0
160 87 53 0
51 131 91 0
-95 -153 -123 0
-116 6 -89 0
81 138 130 0
-109 111 42 0
83 20 -148 0
140 6 57 0
-125 -117 22 0
106 -24 -27 0
42 117 52 0
-148 107 -42 0
-129 -119 -71 0
96 33 74 0
85 156 -131 0
-115 150 138 0
21 -44 -67 0
98 -48 -9 0
32 -45 -67 0
28 -102 -55 0
-57 -5 48 0
-75 -23 132 0
55 13 91 0
-36 -158 -82 0
-45 -118 -44 0
-73 19 -16 0
-38 48 61 0
-111 -109 159 0
-88 -19 51 0
46 151 -44 0
116 8 -126 0
-40 112 139 0
-137 140 -6 0
-12 16 -60 0
66 -85 108 0
-15 -66 95 0
130 -62 113 0
146 -6 67 0
-100 75 64 0
65 87 34 0
-70 95 146 0
-27 101 135 0
136 -34 -123 0
79 -15 -102 0
-49 79 81 0
105 30 121 0
41 -101 -107 0
94 27 -155 0
-82 -159 -107 0
66 -30 154 0
-98 77 124 0
-110 -52 30 0
-150 -109 -40 0
-75 79 128 0
48 -156 105 0
93 80 96 0
-94 -53 61 0
33 110 26 0
-39 137 -47 0
-125 61 -71 0
152 32 89 0
