p cnf 170 724
152 -156 126 0
5 66 -19 0
-127 63 18 0
23 78 163 0
-27 62 65 0
85 -126 -48 0
117 -168 162 0
134 -27 -108 0
-107 62 29 0
24 66 -64 0
58 139 91 0
-47 41 -34 0
62 69 -53 0
158 -144 -96 0
160 6 -39 0
-106 -27 -25 0
-141 160 148 0
-129 -39 -36 0
89 -160 62 0
-146 31 6 0
-11 121 44 0
145 13 87 0
-4 136 21 0
83 -65 -103 0
-130 95 -47 0
-48 95 -142 0
-67 160 -78 0
-65 -10 -120 0
2 53 -82 0
-67 -169 -47 0
-76 -70 8 0
-59 20 170 0
91 31 23 0
49 -124 -41 0
-143 145 -48 0
115 -43 112 0
13 -163 -129 0
83 81 -94 0
151 54 -94 0
-140 85 -23 0
27 -25 -24 0
58 37 79 0
-133 144 -106 0
59 70 -125 0
-130 -35 -93 0
70 -164 102 0
-131 58 -95 0
-116 166 -56 0
-100 -132 122 0
-138 -119 -63 0
-117 -105 120 0
113 93 101 0
-33 -121 -17 0
26 88 138 0
42 14 15 0
-82 -100 -37 0
-48 -109 -52 0
42 90 -161 0
-135 114 10 0
-32 -47 -166 0
155 124 23 0
-151 -53 48 0
-43 49 -150 0
83 -120 117 0
168 -148 -32 0
-22 60 75 0
-117 -157 -56 0
132 -10 -149 0
147 12 91 0
23 -73 -69 0
115 57 -70 0
-98 63 -86 0
-38 67 -169 0
-13 110 168 0
130 63 -71 0
-109 -5 -32 0
-70 55 -59 0
-153 -93 102 0
163 -52 129 0
-51 -78 -170 0
-38 144 113 0
-89 -18 93 0
133 90 161 0
-144 20 -166 0
-29 101 -35 0
76 -60 144 0
-31 -124 7 0
-3 44 40 0
-53 -25 16 0
-18 117 -24 0
-116 93 34 0
111 -94 134 0
-28 103 109 0
-119 154 2 0
-6 23 -82 0
-119 154 105 0
-160 -11 82 0
-137 165 31 0
-20 9 130 0
-74 162 164 0
-139 159 -51 0
-71 -47 -151 0
-108 -84 118 0
107 -130 -34 0
-16 127 -98 0
3 65 150 0
128 -96 -158 0
-150 75 48 0
155 -39 126 0
-136 -122 137 0
-78 -159 144 0
86 143 -59 0
18 -66 151 0
-107 166 61 0
157 -3 7 0
-12 162 141 0
146 36 -159 0
-77 8 144 0
142 104 92 0
-45 167 92 0
-35 113 -64 0
73 -149 124 0
-141 -127 24 0
-148 -165 -9 0
32 7 -18 0
144 109 126 0
-144 113 -123 0
123 21 -69 0
-29 -51 103 0
-26 -167 111 0
-68 -110 59 0
-62 -132 -162 0
90 103 -21 0
-121 30 13 0
-6 -36 -3 0
66 -64 53 0
-54 -74 -95 0
7 125 164 0
47 -131 -146 0
155 5 145 0
-136 58 -135 0
45 -25 144 0
153 146 -162 0
121 6 -161 0
-151 -63 45 0
96 109 107 0
-138 125 102 0
-36 -158 96 0
146 162 -34 0
155 -51 -158 0
136 133 -134 0
-113 116 64 0
-121 -117 1 0
-137 -150 77 0
-9 -30 126 0
160 -135 -147 0
16 129 -36 0
-11 69 -36 0
-117 97 87 0
-11 165 -119 0
14 -59 125 0
51 -5 86 0
-111 67 -56 0
69 -94 -108 0
131 168 141 0
-117 -140 12 0
-3 -76 120 0
131 159 -6 0
87 70 -131 0
-102 88 -93 0
5 -133 -170 0
170 74 -28 0
-4 94 108 0
-128 -135 98 0
83 170 -144 0
-66 -93 -11 0
-99 -83 -87 0
6 -159 -106 0
39 -11 -17 0
-162 11 82 0
-60 -15 -47 0
-126 28 -116 0
110 27 -124 0
-117 -148 -136 0
-83 -23 89 0
135 -26 -56 0
65 -58 132 0
60 -3 71 0
69 -59 -25 0
101 129 1 0
-127 -42 45 0
131 161 1 0
-112 -85 26 0
-34 131 38 0
63 -155 -17 0
76 -168 61 0
92 -17 124 0
47 -9 -156 0
55 -85 101 0
-113 -139 152 0
-36 68 29 0
-109 83 -139 0
6 -110 -97 0
-53 -45 -163 0
134 46 -119 0
156 -164 18 0
-142 14 100 0
-134 -11 -109 0
129 55 41 0
99 -98 168 0
-145 89 110 0
-145 137 9 0
-154 -93 -80 0
67 81 -79 0
-120 -126 -127 0
-21 102 -154 0
142 140 170 0
100 -56 155 0
-133 15 -123 0
55 136 6 0
-67 93 60 0
20 148 -75 0
33 -118 -42 0
66 8 152 0
154 80 10 0
64 -11 -143 0
-12 -36 133 0
-124 -79 16 0
19 17 -39 0
150 35 -92 0
51 154 42 0
6 -7 159 0
-84 4 129 0
-58 44 -32 0
-137 -107 77 0
-129 153 80 0
-15 -85 -46 0
-170 167 -114 0
34 32 156 0
-69 84 -130 0
91 109 -113 0
125 59 26 0
-11 139 103 0
166 137 159 0
-40 -112 -124 0
128 48 63 0
158 -139 150 0
19 -90 -57 0
166 134 -105 0
15 -21 -1 0
-60 22 62 0
-146 155 -124 0
92 164 130 0
139 -93 -54 0
147 52 -10 0
-55 162 154 0
-125 -7 -39 0
63 -163 -58 0
22 -10 40 0
-109 159 -59 0
81 -82 111 0
-159 -100 -21 0
-99 -87 -13 0
21 15 -156 0
72 47 -52 0
-79 71 65 0
-118 -151 146 0
-60 -79 2 0
10 -104 30 0
117 -53 134 0
-109 167 -100 0
87 25 -70 0
-92 82 -55 0
2 -43 -130 0
-74 -61 47 0
-5 37 144 0
-93 -5 -104 0
168 -113 -78 0
138 35 -164 0
-168 -74 16 0
-68 -42 99 0
24 -7 77 0
-3 26 -100 0
-71 -24 52 0
138 -162 65 0
149 -83 54 0
91 -9 -21 0
76 7 -142 0
-7 -68 132 0
-55 -128 154 0
81 89 13 0
-115 -74 97 0
-37 -82 -68 0
-65 -47 -126 0
44 -12 -10 0
133 61 44 0
59 -1 12 0
103 117 57 0
-88 -3 -94 0
30 -77 158 0
-158 -83 -125 0
-1 -51 134 0
106 -18 -148 0
49 15 -159 0
-130 8 111 0
-114 -64 41 0
64 116 38 0
-53 92 16 0
-60 145 -168 0
-46 -13 146 0
-159 162 94 0
133 154 -41 0
-81 17 -132 0
108 135 -73 0
-90 -114 48 0
145 -60 169 0
-4 -121 -42 0
57 129 -168 0
28 -71 -124 0
-66 33 103 0
86 27 60 0
-91 37 95 0
92 -38 98 0
83 164 -34 0
129 -79 -141 0
-142 -112 -159 0
19 -53 -4 0
129 125 82 0
-87 116 -54 0
105 8 -78 0
42 73 -28 0
12 -32 78 0
-129 96 131 0
-64 95 -159 0
-41 -73 28 0
-139 3 -150 0
-71 -108 -40 0
67 -1 -2 0
-91 37 6 0
-109 -110 -149 0
154 63 -120 0
56 169 18 0
136 -109 162 0
-32 -7 4 0
58 -66 -47 0
129 132 90 0
58 159 163 0
-164 -53 -118 0
76 -61 116 0
-10 27 126 0
151 65 34 0
-118 139 -61 0
74 -83 -44 0
-125 -97 151 0
114 99 -39 0
-7 -147 99 0
-27 148 -70 0
34 65 134 0
-78 102 44 0
-6 -59 125 0
115 66 -151 0
-167 160 114 0
166 29 115 0
36 -103 -47 0
-29 13 81 0
-161 124 16 0
124 -132 58 0
155 74 32 0
113 -139 5 0
-73 113 37 0
126 -5 148 0
60 -112 36 0
-55 -37 -97 0
26 127 -29 0
-138 -19 70 0
-121 83 -15 0
-64 -63 58 0
-150 -71 -113 0
-16 -40 4 0
27 22 151 0
122 -80 -42 0
-160 -164 -36 0
143 6 43 0
-106 -25 -144 0
-28 -159 -122 0
11 107 -32 0
-149 -27 -87 0
74 2 -10 0
23 68 -149 0
36 -100 60 0
166 100 -167 0
-146 32 89 0
23 158 -64 0
-93 -72 -33 0
38 -99 117 0
142 115 146 0
151 -62 94 0
-55 83 170 0
-90 -14 146 0
-114 -37 14 0
77 -121 -37 0
-23 -159 157 0
-151 -79 78 0
-148 -72 31 0
-13 40 -169 0
167 19 -11 0
-139 91 -121 0
-7 115 159 0
77 -98 -75 0
156 -26 -53 0
46 114 142 0
-18 -81 87 0
-164 -20 -86 0
-57 -61 130 0
45 -127 33 0
160 162 54 0
-10 -138 81 0
27 117 -91 0
170 -56 -120 0
138 -145 -121 0
-20 -166 167 0
-44 2 -43 0
-138 -55 140 0
5 115 76 0
-168 -55 -131 0
79 83 -58 0
127 -94 -37 0
127 -157 12 0
78 -146 152 0
-100 119 -109 0
-54 -88 -14 0
-32 -1 68 0
-62 -69 116 0
-54 74 -24 0
143 162 -152 0
58 84 -169 0
90 -21 -59 0
-23 -10 -154 0
-74 -22 89 0
-85 157 -163 0
-3 34 14 0
76 -31 46 0
-64 124 -27 0
-101 163 34 0
154 49 48 0
-74 -127 -38 0
-35 121 119 0
58 47 2 0
-165 -43 -61 0
148 7 153 0
138 -30 24 0
-70 -50 38 0
37 -20 88 0
-168 152 123 0
-5 113 -23 0
-152 -92 -10 0
12 -71 164 0
-81 -109 -41 0
67 122 -23 0
154 -63 -50 0
-99 75 -62 0
53 125 -25 0
-114 -75 61 0
20 -167 -27 0
16 -46 -121 0
98 10 64 0
80 -61 147 0
95 -139 -57 0
-97 114 28 0
-96 67 106 0
-62 -28 1 0
-65 133 -74 0
30 -134 116 0
-165 22 3 0
156 -33 -40 0
-58 51 -119 0
123 149 81 0
-152 -36 -84 0
124 87 -102 0
-16 73 -62 0
-32 33 15 0
-144 -78 75 0
90 -28 -108 0
2 59 -130 0
70 142 -78 0
152 -91 47 0
-14 110 106 0
136 -47 -42 0
-22 -89 74 0
-77 -58 -59 0
126 148 121 0
-21 -114 -70 0
-35 39 108 0
162 -170 17 0
160 51 -41 0
97 116 78 0
-127 -53 -108 0
-49 54 -13 0
57 -126 -26 0
-30 121 96 0
-85 54 -94 0
-110 149 14 0
-149 -154 21 0
-91 15 -157 0
15 162 -123 0
112 -159 -127 0
-164 -9 -66 0
-157 8 -34 0
146 57 37 0
47 79 144 0
22 120 -115 0
-95 -130 131 0
59 65 -76 0
-67 105 125 0
-39 167 -50 0
-149 109 133 0
-102 -105 18 0
156 -69 -126 0
60 15 10 0
-14 58 134 0
117 132 54 0
-20 -140 138 0
13 -7 101 0
85 141 -60 0
-136 97 135 0
44 165 -121 0
120 -106 140 0
107 58 12 0
-35 22 -105 0
18 -87 -28 0
-40 -116 128 0
-143 -137 -1 0
-50 -14 147 0
-116 -46 -16 0
37 -109 99 0
83 138 168 0
-31 109 134 0
28 -49 -167 0
146 -109 -62 0
-41 -23 105 0
-169 135 13 0
-61 -136 54 0
132 13 -92 0
140 113 42 0
74 -151 -29 0
-134 -130 -23 0
-168 91 -122 0
-54 35 6 0
5 92 55 0
-158 78 96 0
158 131 170 0
-113 31 44 0
115 126 116 0
92 127 115 0
5 -75 -16 0
-57 31 -45 0
15 167 102 0
5 -147 24 0
62 10 -4 0
-105 156 -82 0
140 77 -133 0
57 -108 -26 0
-114 -82 -89 0
161 -110 34 0
137 75 -133 0
81 -28 71 0
-105 -101 36 0
5 -4 27 0
98 8 81 0
-78 164 -93 0
78 11 -10 0
-124 107 -70 0
86 15 -60 0
92 32 -81 0
124 68 -108 0
60 69 -34 0
90 -126 28 0
146 59 -153 0
166 7 -103 0
-54 -167 99 0
74 117 70 0
129 -161 -33 0
68 -36 -1 0
157 -71 -164 0
-37 74 112 0
-79 -41 -123 0
-126 107 -127 0
75 -139 74 0
98 -54 -141 0
165 -10 161 0
122 167 -55 0
84 166 -56 0
154 -152 113 0
-75 -48 -70 0
70 -102 21 0
147 106 -29 0
-3 -69 53 0
159 146 55 0
33 148 16 0
-100 75 -115 0
-83 130 42 0
140 162 33 0
141 134 45 0
16 100 -50 0
104 169 -14 0
-146 155 10 0
96 21 70 0
-110 -115 45 0
117 -108 -32 0
-146 7 -1 0
-55 -52 -156 0
-131 -152 23 0
152 99 163 0
154 -141 75 0
12 161 50 0
94 127 -109 0
-153 -123 114 0
-138 52 125 0
-43 39 119 0
119 -61 6 0
131 -150 76 0
168 35 -56 0
103 66 14 0
-86 71 -124 0
-151 -70 54 0
120 -144 89 0
61 65 -87 0
59 106 -139 0
92 123 -105 0
-52 -97 104 0
-140 50 166 0
151 -28 155 0
123 87 -2 0
-113 156 -93 0
-33 148 75 0
42 -79 108 0
154 -78 -18 0
15 -160 133 0
135 122 -6 0
36 -92 -13 0
-65 158 8 0
-22 160 4 0
-105 34 96 0
81 64 43 0
-22 168 -143 0
-169 -40 136 0
-146 -84 -149 0
-103 67 -91 0
168 113 90 0
-132 44 -142 0
43 104 67 0
129 -138 60 0
-123 124 -10 0
-22 -141 -170 0
170 86 -44 0
-34 -109 90 0
53 32 94 0
131 -94 12 0
100 66 115 0
-37 -21 -83 0
-33 -53 91 0
-113 -7 -155 0
54 155 -18 0
-135 -125 152 0
49 168 46 0
131 -51 -47 0
118 -50 -76 0
-100 10 149 0
-91 -80 97 0
57 -64 -158 0
33 -9 -124 0
-90 75 -6 0
-168 24 119 0
-94 -25 14 0
-109 86 -128 0
110 -160 76 0
162 -97 -91 0
-21 134 -49 0
144 85 81 0
-102 58 125 0
-71 35 -129 0
123 -96 -79 0
10 -43 -91 0
159 144 -97 0
-111 -150 -27 0
-2 114 -49 0
-130 57 9 0
150 103 87 0
-10 1 -145 0
33 -170 106 0
112 -135 107 0
-43 27 32 0
88 -126 2 0
86 32 -123 0
-29 -129 -108 0
-28 167 -15 0
-14 -169 -78 0
166 -130 98 0
-146 141 147 0
48 138 100 0
-22 -60 40 0
68 139 -8 0
-49 -152 84 0
131 -19 115 0
162 81 71 0
144 -116 94 0
81 1 73 0
39 21 -159 0
-12 -154 136 0
100 -79 69 0
-137 87 35 0
161 28 147 0
-61 57 23 0
143 -117 -86 0
6 30 -34 0
-61 -154 -150 0
53 -1 55 0
144 121 102 0
8 -102 -138 0
-107 -128 -144 0
-9 105 -135 0
-125 -110 55 0
24 -75 146 0
-165 -13 -46 0
