p cnf 210 894
-95 50 164 0
-52 38 195 0
181 -145 92 0
92 126 -5 0
57 203 -142 0
57 -102 70 0
-129 177 172 0
-152 -102 198 0
-110 -93 97 0
39 182 -178 0
-76 -156 -100 0
18 180 -152 0
164 43 -158 0
210 82 123 0
120 -199 -70 0
-116 -108 -184 0
-189 -54 -69 0
68 55 -145 0
-138 -12 -178 0
-13 113 -61 0
-111 -118 -23 0
-184 128 -10 0
147 -102 121 0
91 20 -186 0
105 -187 -195 0
-100 -70 45 0
123 112 191 0
2 -172 -129 0
5 -14 -18 0
-135 -189 169 0
-204 -2 34 0
-153 -8 117 0
-138 -162 192 0
62 193 -97 0
-156 -125 -93 0
-177 125 -169 0
-86 -109 80 0
-139 83 91 0
81 -2 6 0
190 -7 49 0
-121 202 -12 0
209 -84 -61 0
-10 -139 143 0
-117 49 3 0
-50 -79 -171 0
-210 149 -60 0
202 38 105 0
-39 -66 197 0
-84 81 156 0
128 206 -174 0
90 -83 -102 0
-124 42 -174 0
-138 60 46 0
-40 -97 129 0
157 -140 158 0
71 -97 25 0
-134 -128 61 0
-16 -64 107 0
-22 8 -43 0
-94 -175 -188 0
159 191 -120 0
141 70 15 0
118 32 -197 0
-25 -200 77 0
-84 -146 118 0
-26 -98 147 0
-67 107 -41 0
23 -26 3 0
74 133 40 0
4 162 -176 0
-30 132 204 0
-14 194 117 0
-161 180 65 0
44 -179 -149 0
-156 -198 206 0
-62 68 143 0
149 -197 -50 0
68 -152 -4 0
-100 152 46 0
40 104 118 0
173 -167 163 0
137 104 -43 0
-136 -140 -205 0
-199 -75 53 0
84 -177 -15 0
67 -173 -126 0
-191 -111 108 0
-70 -144 192 0
-128 118 163 0
181 75 14 0
1 197 -57 0
141 184 85 0
27 15 75 0
-133 94 23 0
-18 16 103 0
88 -20 47 0
196 -138 -46 0
196 49 -23 0
100 195 116 0
90 -182 45 0
-148 58 101 0
127 33 4 0
83 -169 195 0
-43 -145 157 0
-113 203 -82 0
197 -208 -8 0
13 -201 177 0
144 -149 -174 0
-201 148 -32 0
-31 124 193 0
-117 22 -122 0
-4 95 136 0
-88 -112 -125 0
50 -107 95 0
-35 -24 -191 0
-86 53 -73 0
91 -149 -144 0
47 -113 -70 0
-129 -3 -146 0
146 38 -26 0
14 91 95 0
6 -45 -157 0
-140 -190 -165 0
-124 137 -125 0
142 -188 -119 0
153 -133 62 0
-138 -160 119 0
142 193 139 0
35 -122 -192 0
-83 -9 131 0
160 -139 -179 0
-3 -101 84 0
154 165 -41 0
128 209 168 0
98 -45 -157 0
-48 74 -28 0
80 140 23 0
-135 95 39 0
-204 180 201 0
37 -156 -120 0
-96 -203 186 0
-156 -27 -202 0
-38 210 84 0
-178 -38 86 0
-181 114 183 0
20 -182 -7 0
-204 117 159 0
10 32 -7 0
-149 169 204 0
146 138 -44 0
14 -16 156 0
130 18 -36 0
-65 165 -41 0
56 -192 -21 0
-193 153 -22 0
-199 -192 138 0
172 65 -60 0
93 -46 132 0
7 -52 -48 0
-48 87 -98 0
89 2 -58 0
32 54 -77 0
-142 22 -162 0
93 174 135 0
-103 -94 88 0
143 -25 -16 0
-147 -39 -173 0
-102 143 -59 0
14 181 88 0
-65 -24 -40 0
-118 45 -73 0
98 -94 -207 0
-204 131 51 0
179 -178 -14 0
-138 147 196 0
-93 -200 -20 0
109 -93 -61 0
-4 -178 43 0
-126 4 32 0
-176 67 -105 0
132 -179 -157 0
-31 -107 197 0
85 95 22 0
-58 126 -206 0
128 101 -204 0
-37 131 -201 0
102 -112 -91 0
209 -69 -16 0
27 17 -79 0
-189 105 136 0
92 -103 -56 0
201 108 -69 0
183 -120 78 0
205 -130 -120 0
41 -22 127 0
125 113 -54 0
197 -128 58 0
-189 165 158 0
-80 97 -159 0
-10 31 200 0
16 -133 -205 0
-197 83 -88 0
172 -71 140 0
154 -150 82 0
168 18 -14 0
-185 95 -190 0
142 -39 82 0
-55 -20 183 0
192 96 -150 0
178 -19 -161 0
204 -177 -70 0
207 3 -42 0
186 107 37 0
-167 196 -2 0
-114 -102 93 0
-69 -72 49 0
122 -43 184 0
155 157 209 0
-80 65 -174 0
-49 110 -200 0
26 191 94 0
5 201 -46 0
-148 76 -120 0
-77 158 32 0
-181 -91 44 0
-131 111 74 0
-182 -162 -40 0
20 -127 14 0
83 86 -117 0
-171 89 -96 0
-170 96 -192 0
32 173 -10 0
-11 -13 81 0
-38 -22 102 0
-120 192 -43 0
11 -54 -42 0
-103 -178 148 0
129 -180 140 0
-96 -24 -65 0
-128 86 209 0
29 196 -103 0
201 177 -63 0
92 178 192 0
106 -115 -28 0
-66 -115 -187 0
53 -125 -166 0
-71 38 -111 0
97 157 147 0
-165 8 -180 0
142 -125 139 0
-120 -146 -104 0
99 -20 -180 0
4 83 -40 0
-136 196 -146 0
171 159 -59 0
158 -35 123 0
101 -118 -160 0
-202 -154 120 0
65 -193 -140 0
96 -134 -92 0
-92 -39 -199 0
-73 -22 -8 0
-3 -47 99 0
47 -50 69 0
-94 163 145 0
62 -65 170 0
-146 -34 168 0
139 118 133 0
97 133 49 0
-53 -159 145 0
200 -90 176 0
-78 181 -84 0
57 67 -193 0
-174 164 115 0
-21 80 -76 0
-132 -124 41 0
-206 194 113 0
162 -44 -98 0
173 181 116 0
-138 137 -106 0
-53 -17 174 0
180 101 -4 0
4 196 -181 0
210 100 -108 0
98 -133 40 0
-158 76 -131 0
72 -176 198 0
-99 -12 -191 0
86 110 -116 0
-99 172 45 0
73 -138 154 0
-88 -15 -167 0
-11 15 126 0
209 -29 -131 0
61 107 -76 0
-170 -74 100 0
92 195 -164 0
-146 130 85 0
-42 -203 152 0
-169 -152 31 0
-178 149 73 0
-68 -18 -38 0
86 -55 152 0
8 -104 -5 0
65 -18 155 0
-66 193 182 0
185 133 -20 0
-203 122 193 0
166 196 -113 0
78 85 170 0
90 144 111 0
6 5 67 0
-195 -47 140 0
-102 -82 -8 0
59 -50 97 0
-97 24 -93 0
-114 -33 -27 0
-187 -160 165 0
-186 -198 -100 0
195 -95 183 0
97 -127 123 0
81 183 -65 0
106 145 78 0
131 177 130 0
-60 -151 -124 0
-79 -105 -50 0
-187 -179 -194 0
-177 -185 -168 0
-32 -92 -97 0
-100 -191 29 0
-189 98 -187 0
-143 -78 -195 0
-34 95 170 0
-99 149 90 0
49 -202 161 0
-100 201 71 0
29 123 194 0
-142 87 -102 0
128 -69 131 0
-185 -167 -122 0
93 54 -165 0
209 39 36 0
-64 33 85 0
-175 -12 -56 0
-88 -191 67 0
153 140 139 0
-172 27 43 0
-185 -40 74 0
94 -190 -137 0
183 125 -78 0
199 -166 82 0
136 53 108 0
122 -22 187 0
-137 98 -140 0
-68 164 -154 0
204 8 21 0
-130 -198 65 0
-114 -48 -104 0
208 -54 -73 0
125 -28 23 0
-83 104 -32 0
-63 96 -130 0
-83 165 -79 0
120 -202 -74 0
82 55 -195 0
180 158 -55 0
1 -200 172 0
-80 -87 47 0
157 -170 -87 0
-94 -56 184 0
83 -126 -46 0
185 -100 88 0
-107 -97 -135 0
-31 -115 -45 0
140 -32 48 0
-40 46 -103 0
-103 -183 -44 0
-27 -83 -208 0
115 -96 157 0
3 -67 146 0
-30 1 -189 0
109 -167 166 0
-119 32 125 0
-107 164 -137 0
-1 -79 -41 0
-78 50 -102 0
-155 -206 102 0
92 -71 -95 0
30 -83 110 0
-32 -203 -191 0
44 107 -76 0
165 188 -125 0
62 151 77 0
195 -204 -10 0
-48 -141 -79 0
60 162 156 0
-128 85 160 0
146 -156 -151 0
98 111 77 0
38 55 144 0
205 197 -42 0
-12 126 45 0
-118 -150 8 0
-208 -25 10 0
-88 -7 -85 0
5 178 107 0
-133 96 79 0
12 19 162 0
-14 161 72 0
-61 -149 19 0
156 196 -158 0
174 107 -159 0
-146 -139 102 0
122 -100 209 0
-69 56 -31 0
-53 82 -178 0
-21 -97 187 0
100 101 -127 0
-36 -201 -137 0
104 -34 130 0
97 -22 119 0
54 -96 -17 0
-5 -49 51 0
-167 85 -209 0
-28 -63 204 0
-117 190 -204 0
-157 177 -39 0
-190 102 -76 0
-67 205 -200 0
146 -87 200 0
42 -178 87 0
-100 -127 -183 0
-63 -30 -207 0
-37 -85 102 0
-29 11 -81 0
-27 206 -74 0
202 -101 -57 0
54 48 -50 0
87 -29 -140 0
-44 56 154 0
-54 151 -112 0
7 -59 199 0
-57 66 -201 0
-129 -58 159 0
160 -191 -58 0
-8 57 84 0
-52 41 203 0
-144 -49 63 0
-197 114 79 0
38 -96 13 0
-92 89 -130 0
208 -70 -102 0
151 101 154 0
-81 -1 -127 0
160 -150 -176 0
50 -156 -75 0
-94 -90 -11 0
-13 -129 83 0
51 144 191 0
-56 -141 41 0
-102 -172 164 0
29 -201 200 0
-132 -28 -41 0
184 169 -125 0
-155 -44 92 0
-108 -49 37 0
49 121 55 0
-167 -28 -85 0
130 -53 201 0
-40 -99 -35 0
-154 -102 -158 0
-15 -6 -99 0
44 1 198 0
-149 -68 101 0
-46 31 129 0
150 123 -176 0
-35 130 177 0
-127 -31 202 0
154 56 193 0
35 24 107 0
8 -68 140 0
171 -77 209 0
64 -102 -12 0
42 -5 101 0
41 11 -87 0
-34 90 83 0
-130 188 99 0
118 154 -148 0
-121 141 -94 0
-181 -191 -196 0
-19 20 25 0
-39 30 150 0
125 101 -23 0
-167 -69 182 0
-13 56 -68 0
-186 44 -104 0
50 88 104 0
52 88 -87 0
-185 -5 -197 0
66 -68 69 0
-160 -69 -98 0
-192 149 -31 0
138 118 139 0
-120 -170 157 0
165 -138 87 0
-156 -171 148 0
-136 -127 -161 0
-118 -104 165 0
109 -82 189 0
-38 149 131 0
184 98 -105 0
206 -129 -51 0
-9 -45 -159 0
139 89 -24 0
-48 74 9 0
-51 -10 -21 0
163 -31 122 0
-154 114 -190 0
-185 -187 -79 0
104 142 101 0
93 116 -74 0
107 -84 -97 0
-22 -193 12 0
179 13 105 0
209 -160 103 0
136 -108 141 0
35 181 -200 0
-167 -139 132 0
103 -79 129 0
-210 208 -164 0
-84 205 45 0
132 40 195 0
166 106 142 0
-174 -82 4 0
18 -181 -130 0
28 182 95 0
-126 -170 -107 0
106 125 48 0
176 12 -187 0
-151 2 159 0
54 120 52 0
146 101 -184 0
202 175 -7 0
69 -173 -170 0
173 127 112 0
150 -87 36 0
-185 -198 171 0
131 22 85 0
111 38 80 0
154 29 119 0
205 -4 132 0
-147 153 -49 0
95 -154 -90 0
140 -164 106 0
205 15 -77 0
159 -186 83 0
-176 60 169 0
37 -8 -146 0
-129 15 154 0
-119 -14 -120 0
-154 -104 -113 0
36 -37 -53 0
78 123 151 0
-129 179 -204 0
-186 123 16 0
209 -37 123 0
-45 210 171 0
99 147 -122 0
81 -53 7 0
66 57 129 0
-156 -83 -88 0
52 -102 -67 0
163 -63 204 0
168 -135 -53 0
203 -39 137 0
-74 -60 -186 0
114 66 -111 0
-154 -165 107 0
191 136 -203 0
121 -12 141 0
81 87 179 0
-197 -208 -78 0
170 -136 210 0
146 135 -178 0
-57 155 144 0
65 -92 59 0
88 -165 -21 0
133 104 -67 0
71 -188 -106 0
-179 54 56 0
136 54 200 0
-179 -198 -210 0
159 -165 31 0
-199 -135 -81 0
-150 40 -57 0
-12 -197 173 0
-63 46 182 0
63 39 119 0
-11 76 149 0
-165 132 -95 0
93 -145 168 0
138 121 46 0
17 -21 152 0
60 -36 104 0
181 -57 121 0
40 -1 52 0
-20 -160 -107 0
-25 -28 -168 0
190 -117 -154 0
-45 -202 -117 0
-125 -90 -184 0
-180 117 77 0
198 9 108 0
-92 -84 -100 0
-187 93 181 0
106 -163 145 0
-208 65 17 0
145 -99 -117 0
-160 -80 -110 0
-11 151 156 0
-74 7 199 0
52 201 -44 0
65 -75 89 0
-68 -210 -69 0
-42 -79 171 0
105 -147 -190 0
168 77 -199 0
21 88 -93 0
174 164 158 0
90 115 -65 0
94 -158 -3 0
141 -189 -77 0
-207 -108 -69 0
-203 -3 74 0
-83 -135 -177 0
-114 200 -119 0
-186 -59 -169 0
16 147 -96 0
-198 7 150 0
108 -193 138 0
101 93 -135 0
20 -84 -12 0
-134 -108 -20 0
23 -4 22 0
-136 149 40 0
5 -90 -147 0
154 -3 86 0
-166 -133 67 0
-141 67 -204 0
-21 -115 -49 0
87 109 -41 0
-107 -155 -143 0
-79 -46 -35 0
-158 137 -156 0
192 78 38 0
55 -4 -166 0
-151 28 -173 0
-85 151 142 0
79 95 -58 0
189 102 -164 0
189 -59 -142 0
-49 -188 3 0
-198 24 35 0
5 147 67 0
-152 -193 56 0
54 -180 -95 0
70 168 21 0
152 -59 148 0
85 150 -52 0
105 32 -3 0
89 -147 -161 0
-33 -110 -198 0
74 -46 73 0
163 -156 5 0
181 76 81 0
-79 135 -156 0
106 182 -78 0
-28 -204 172 0
198 67 130 0
63 70 190 0
30 -40 -118 0
-128 69 -32 0
-186 -49 -174 0
25 -85 40 0
72 146 14 0
-48 -21 160 0
-47 -190 134 0
-143 23 195 0
196 -123 90 0
-61 156 -130 0
77 -183 -43 0
22 -156 -175 0
-199 35 191 0
-163 -172 166 0
-93 -167 -2 0
8 159 -12 0
99 182 109 0
86 167 -84 0
36 174 -138 0
71 -177 152 0
25 73 82 0
194 -203 140 0
196 -43 -161 0
-136 -70 33 0
-53 176 -39 0
-71 13 186 0
59 -81 -114 0
33 9 -73 0
86 29 174 0
133 97 115 0
-75 6 -98 0
-25 -172 160 0
-115 54 -102 0
110 -11 126 0
147 -175 -49 0
-183 -99 6 0
-96 115 126 0
-193 149 -43 0
-83 -20 -23 0
-21 -26 171 0
-167 171 194 0
-24 204 151 0
-139 -128 -178 0
-54 -59 -200 0
-201 -74 186 0
-86 -170 -164 0
88 -113 183 0
-200 -137 150 0
-193 -155 44 0
-90 -61 154 0
-176 -27 85 0
-184 15 -143 0
12 111 -85 0
-162 -99 -210 0
145 126 60 0
-121 -117 46 0
-27 -150 -22 0
-68 145 36 0
-47 143 14 0
83 99 67 0
88 -201 126 0
154 30 5 0
41 174 -210 0
98 138 165 0
-97 -179 207 0
3 150 182 0
-199 -148 -41 0
66 -36 -96 0
-81 -3 122 0
-96 94 207 0
-6 -75 53 0
66 194 -129 0
-113 105 -25 0
192 171 140 0
-168 -97 -74 0
209 81 -121 0
-157 -29 202 0
32 -15 -132 0
-61 -73 164 0
-34 110 -141 0
77 -177 48 0
-177 165 -164 0
-162 8 123 0
-10 171 27 0
-182 -140 39 0
127 89 -191 0
22 -30 -82 0
-138 -107 -204 0
42 -165 73 0
-91 -107 -90 0
37 95 128 0
28 181 94 0
-5 90 179 0
114 62 -83 0
-78 -48 72 0
-39 17 42 0
32 -203 -152 0
-175 -123 93 0
-173 -32 201 0
-196 -3 -122 0
104 57 -151 0
-141 204 -54 0
-80 -82 -76 0
106 165 -114 0
-72 -86 -163 0
180 52 -132 0
-177 69 -138 0
-174 -147 82 0
49 158 -109 0
106 -104 -171 0
183 173 -40 0
35 134 137 0
99 -10 14 0
57 -19 -195 0
-9 -78 88 0
-113 60 -92 0
137 98 -167 0
133 -43 72 0
-196 -138 90 0
-35 102 106 0
-143 182 -39 0
12 -157 57 0
-111 -194 -23 0
187 31 46 0
-163 30 36 0
-138 194 -140 0
-146 30 173 0
-58 -10 -133 0
27 119 -24 0
169 -32 93 0
79 -124 -108 0
210 4 21 0
54 80 -99 0
194 -118 -80 0
34 147 -44 0
-67 -189 114 0
207 -135 -89 0
-86 -180 89 0
-97 -195 -164 0
123 148 73 0
-185 -129 -148 0
-129 -167 -45 0
52 6 122 0
-4 -153 29 0
-111 -186 -167 0
-138 -90 -145 0
-3 -140 -28 0
-26 24 -167 0
-184 -148 44 0
-113 -99 -151 0
124 131 25 0
133 -152 -104 0
-178 -113 -123 0
-89 104 -210 0
11 17 68 0
-55 24 -128 0
50 -117 -40 0
159 -14 51 0
-7 -155 74 0
158 52 -135 0
12 -11 -53 0
157 207 -75 0
-53 -109 164 0
-102 151 -109 0
-149 51 -206 0
-150 -173 92 0
-58 -20 -74 0
31 66 105 0
-72 -125 64 0
-20 54 159 0
-4 55 -25 0
95 -57 -91 0
185 -93 -210 0
179 -190 121 0
44 -153 -110 0
54 -136 120 0
-93 -190 -164 0
-96 180 -182 0
75 -96 -5 0
158 -121 -12 0
-55 -52 -39 0
107 -170 -62 0
155 158 186 0
-65 -78 -171 0
39 127 10 0
96 34 10 0
115 128 -149 0
-59 4 39 0
14 -127 194 0
100 -36 189 0
-146 -56 -34 0
147 3 113 0
-194 103 49 0
-196 149 -102 0
16 15 -14 0
23 -68 -111 0
27 -196 -86 0
26 -51 -153 0
139 78 -47 0
88 202 181 0
67 -196 207 0
151 -99 -186 0
97 -157 26 0
-116 174 114 0
3 168 136 0
-201 72 -196 0
153 -186 40 0
-72 145 -71 0
116 -145 -1 0
210 5 -123 0
88 45 -93 0
107 -74 164 0
-175 201 -14 0
47 66 -29 0
