p cnf 375 974
-5 -4 -2 0
-3 1 -2 0
3 4 5 0
2 -5 1 0
-4 3 5 0
-3 -2 4 0
-3 -2 -4 0
-4 3 -1 0
3 -2 5 0
1 2 -3 0
-3 -1 -5 0
-1 -4 -5 0
10 6 9 0
8 10 -7 0
-10 -6 -8 0
-6 8 -9 0
-10 7 8 0
-7 9 8 0
10 -7 -6 0
-6 7 10 0
6 -10 9 0
-10 -9 -6 0
8 7 -6 0
6 -7 -8 0
11 -14 -12 0
13 -12 -15 0
-15 -14 11 0
15 -13 12 0
-12 -13 -11 0
-12 -15 -13 0
13 -14 -15 0
-12 -14 13 0
-15 11 -14 0
-14 12 13 0
15 13 14 0
12 11 13 0
18 17 19 0
20 -19 -18 0
19 18 -16 0
16 -20 -19 0
16 -20 -18 0
-20 -17 -18 0
-18 -19 20 0
18 20 17 0
-17 19 20 0
-19 -20 -17 0
20 -16 -17 0
16 -19 -17 0
-25 24 -22 0
22 23 25 0
-21 -22 -23 0
24 22 -23 0
-24 21 -23 0
21 -24 22 0
25 21 23 0
-25 23 24 0
21 24 25 0
-23 21 22 0
-25 24 21 0
22 -21 -24 0
-26 -28 30 0
-28 30 27 0
28 27 -29 0
-27 -30 26 0
-29 27 26 0
-29 27 26 0
-27 28 26 0
-30 29 28 0
27 -28 -29 0
-27 28 -26 0
29 27 -26 0
-27 26 -30 0
32 34 33 0
32 -35 -31 0
-33 35 34 0
32 -35 34 0
-31 32 -35 0
-34 32 -31 0
33 31 35 0
35 -33 34 0
-33 31 -32 0
-35 -32 33 0
31 35 -34 0
33 35 31 0
40 38 -37 0
36 37 -40 0
-39 -37 -40 0
40 -38 37 0
39 40 -36 0
38 37 39 0
36 -40 -39 0
38 -40 -36 0
-37 -38 -36 0
-36 -40 39 0
38 36 -37 0
37 -38 -40 0
-45 42 44 0
44 -45 41 0
-43 42 45 0
-43 -44 41 0
45 -43 -42 0
45 -43 -44 0
43 41 42 0
-45 41 -43 0
-42 -43 44 0
41 44 42 0
44 45 -42 0
-41 43 42 0
-48 -49 50 0
50 47 -46 0
-46 -50 -48 0
-48 49 -47 0
-47 -49 -50 0
-49 48 47 0
46 49 48 0
47 -49 -48 0
-49 46 -47 0
50 48 49 0
-47 48 50 0
-47 -49 46 0
-53 51 -54 0
-53 54 -55 0
53 52 -55 0
-53 -51 -52 0
53 51 54 0
52 -53 -51 0
-52 -53 -54 0
-53 -51 52 0
-54 52 55 0
-55 53 52 0
54 -55 -53 0
-55 -54 52 0
57 -59 58 0
58 57 56 0
-56 58 -59 0
57 -59 -56 0
-60 -59 58 0
59 58 57 0
57 -59 58 0
-57 -56 60 0
-57 56 -60 0
-60 57 59 0
-57 56 -58 0
59 -60 -56 0
62 -65 64 0
63 -62 64 0
-61 62 64 0
64 -61 -62 0
-62 -63 -64 0
-64 61 65 0
-64 -65 62 0
64 61 -62 0
64 -63 65 0
62 -64 -63 0
62 61 63 0
-65 -61 -63 0
-67 -66 70 0
-70 66 69 0
-67 66 70 0
-67 69 -70 0
69 70 66 0
-68 -67 66 0
69 -68 -66 0
-67 -70 -66 0
-69 -70 -68 0
-68 -67 70 0
69 -66 70 0
-70 66 -67 0
-75 -71 -73 0
-75 71 73 0
-71 72 -75 0
72 -75 -71 0
73 75 72 0
-73 -71 -72 0
75 -73 71 0
75 -74 -73 0
-75 73 74 0
-72 -75 -74 0
71 73 -72 0
73 72 -75 0
-78 76 79 0
-79 76 -80 0
-80 -77 -76 0
-80 -77 -79 0
80 -76 -77 0
-77 -79 76 0
-76 78 77 0
-76 77 -80 0
-76 78 -79 0
80 -76 -79 0
-76 77 -78 0
-80 -78 -79 0
-81 -83 85 0
84 82 -85 0
-82 81 84 0
84 81 82 0
-84 -85 83 0
-81 -82 -84 0
82 81 -84 0
82 -85 -81 0
84 83 85 0
84 -85 83 0
-83 85 84 0
84 85 -81 0
90 87 -88 0
89 90 -88 0
-87 -90 88 0
-90 -88 86 0
-86 87 -90 0
86 -88 -89 0
86 -87 88 0
-87 -86 89 0
88 -87 89 0
-88 -86 -87 0
87 90 -88 0
-86 87 90 0
94 95 91 0
-94 -95 91 0
93 95 94 0
91 94 95 0
91 95 -93 0
-92 94 -95 0
-93 92 -91 0
-92 -95 91 0
91 93 94 0
-95 92 -93 0
-92 91 -94 0
93 -91 95 0
-97 -100 98 0
-97 98 100 0
-97 99 98 0
-99 96 97 0
-96 -97 98 0
97 -99 -96 0
100 99 96 0
-96 98 97 0
96 -97 -100 0
-99 -97 100 0
100 -98 96 0
96 99 98 0
105 -104 103 0
-101 -104 -102 0
-103 101 -102 0
-105 -102 104 0
104 102 105 0
103 104 105 0
102 -105 -101 0
-104 103 -102 0
-103 -105 102 0
-103 -101 105 0
-105 -103 -101 0
-104 -103 -102 0
-106 109 107 0
107 109 -106 0
107 110 -109 0
110 109 107 0
106 -108 -109 0
109 -107 -106 0
109 110 -106 0
-110 -109 107 0
109 -107 110 0
-108 -106 110 0
108 109 -110 0
-109 108 -107 0
114 -111 112 0
115 114 113 0
-113 -112 111 0
-111 112 113 0
-112 115 -111 0
115 112 -114 0
114 112 -113 0
114 115 -112 0
-115 112 -113 0
-115 114 -112 0
-115 -114 111 0
112 115 -111 0
-117 -120 119 0
-116 -117 119 0
119 120 -118 0
-119 -120 -116 0
-116 118 120 0
-119 116 -120 0
117 116 -120 0
-116 119 -120 0
-118 -117 120 0
120 -119 -117 0
-116 120 -119 0
118 -120 116 0
-122 123 124 0
125 123 124 0
-125 124 123 0
122 -121 -124 0
123 121 -122 0
-121 -124 -123 0
-122 124 -121 0
-121 -122 -124 0
-122 -121 -125 0
124 -125 -123 0
121 -125 124 0
123 -125 -124 0
128 127 129 0
-128 -130 127 0
129 130 128 0
-127 -129 -128 0
130 -129 -126 0
126 130 -129 0
126 130 -128 0
-128 126 -127 0
-127 -130 -128 0
-126 129 -127 0
-129 -127 -130 0
128 -129 -126 0
-134 131 -132 0
-131 134 132 0
135 -132 131 0
-135 -132 -133 0
-132 131 -133 0
133 134 131 0
-131 -135 133 0
-132 -134 -133 0
131 -134 -135 0
-131 134 -135 0
-131 -133 134 0
-134 -131 135 0
140 -139 -138 0
138 136 -137 0
-137 140 139 0
140 -136 -138 0
-138 136 137 0
136 -140 137 0
136 137 -138 0
139 136 138 0
-137 -138 -136 0
-140 138 -137 0
-138 136 -137 0
137 -138 -140 0
143 141 145 0
143 -142 -145 0
-145 143 -141 0
-142 -144 143 0
-144 141 -145 0
143 -145 -141 0
-145 -143 141 0
141 145 143 0
144 141 143 0
142 -145 -144 0
142 -143 -141 0
145 144 142 0
147 146 148 0
-147 -146 -149 0
-150 -148 149 0
147 -150 148 0
150 -149 148 0
-147 150 146 0
-150 149 -147 0
149 148 147 0
-149 150 -148 0
-148 -149 -150 0
146 147 150 0
147 -148 -146 0
-153 151 154 0
153 -152 154 0
-155 -154 152 0
151 -152 -153 0
153 -154 151 0
151 -154 -152 0
-154 155 152 0
-151 -153 -155 0
151 153 -155 0
155 -152 153 0
155 -154 -151 0
151 154 -152 0
-160 -158 157 0
156 160 158 0
159 -157 156 0
160 -156 158 0
156 -158 -160 0
160 158 159 0
-156 159 157 0
160 -156 159 0
157 158 159 0
158 -159 -157 0
159 158 156 0
160 -158 156 0
162 161 165 0
-161 -163 165 0
161 -165 -163 0
-162 -164 -165 0
163 164 -165 0
-165 164 163 0
164 165 161 0
-164 -163 -165 0
-164 -162 -163 0
-164 165 -161 0
164 162 165 0
-162 -161 -165 0
170 168 169 0
-169 167 166 0
-170 -169 -167 0
-169 -166 170 0
-170 -168 -166 0
168 167 -166 0
-167 170 -168 0
-170 167 -168 0
-170 166 167 0
-168 167 -170 0
170 167 -169 0
-168 -166 167 0
-173 -174 172 0
-172 173 -175 0
173 171 175 0
175 -172 -174 0
174 171 -173 0
-173 -174 175 0
-171 -173 174 0
171 172 174 0
-175 173 171 0
174 172 175 0
-174 173 -175 0
-171 -175 -172 0
176 179 180 0
-179 -177 176 0
176 179 178 0
178 179 176 0
178 177 180 0
-176 179 177 0
-178 -176 -180 0
-180 176 178 0
179 177 180 0
-177 -180 176 0
-178 -180 177 0
178 179 176 0
-181 -183 182 0
-182 181 183 0
-184 185 181 0
182 -185 184 0
-182 181 183 0
-185 -181 184 0
183 -182 -184 0
184 -185 181 0
184 -183 182 0
-181 182 -184 0
181 -184 182 0
-181 183 -185 0
189 186 -190 0
-189 188 186 0
-187 190 188 0
188 -190 -186 0
-188 187 190 0
189 -188 187 0
187 189 -190 0
189 190 -186 0
190 -189 -188 0
-189 190 -187 0
-186 -188 -190 0
187 -186 189 0
-194 193 191 0
192 -191 -193 0
-192 191 194 0
-195 191 -192 0
-193 195 192 0
195 -191 -193 0
194 -193 -195 0
191 194 -195 0
191 192 194 0
-195 193 191 0
192 -195 191 0
193 -195 -194 0
-197 -200 -196 0
-196 200 197 0
-197 198 199 0
-196 200 198 0
-199 197 -196 0
-199 -200 196 0
199 198 196 0
-197 196 200 0
-196 -199 -198 0
-198 -197 -196 0
-197 196 200 0
-198 -200 -197 0
202 -201 -203 0
202 -203 205 0
-205 201 -203 0
-201 -204 -203 0
205 202 203 0
204 -205 201 0
201 -204 -205 0
205 204 203 0
-204 203 205 0
-203 204 205 0
-202 -205 201 0
-204 205 201 0
206 -207 209 0
209 -206 210 0
208 -206 210 0
209 -208 -207 0
-208 206 -207 0
206 207 -209 0
-207 209 -208 0
-210 208 -209 0
208 209 -210 0
210 -206 -208 0
-208 -209 -207 0
209 210 208 0
-211 -214 -212 0
212 211 -213 0
212 -215 -213 0
212 213 -215 0
215 212 213 0
-212 -214 213 0
213 -211 -212 0
-214 -212 -213 0
215 -212 -211 0
-214 -211 -215 0
-215 -211 -212 0
211 -214 215 0
-216 -218 219 0
-217 -218 216 0
-218 219 217 0
-220 216 -217 0
217 -220 216 0
-217 -219 220 0
216 -219 -220 0
217 218 -220 0
-216 -217 219 0
217 219 218 0
216 219 217 0
-216 -220 -218 0
-223 225 -221 0
-223 -224 225 0
-223 -224 222 0
-224 -225 221 0
221 223 -225 0
223 225 -221 0
-225 -224 221 0
-221 225 -222 0
224 -223 225 0
223 221 -224 0
-224 222 225 0
-222 -224 -225 0
228 229 226 0
-228 229 -227 0
228 226 227 0
-229 -227 230 0
-228 230 -229 0
228 227 -226 0
-226 -228 -227 0
227 -229 -226 0
226 -227 -228 0
229 227 -226 0
227 -230 -228 0
227 -228 230 0
234 -235 231 0
231 234 232 0
232 -231 -234 0
-234 -235 231 0
-234 -232 231 0
-231 -233 235 0
-234 -235 232 0
235 -231 -232 0
-235 231 -232 0
-232 -234 -231 0
231 232 -234 0
233 235 -234 0
240 -239 -237 0
-238 240 -239 0
-237 239 -240 0
-237 239 238 0
-238 -240 -237 0
-236 237 -238 0
-240 237 -239 0
-239 -237 236 0
238 240 236 0
239 240 -238 0
-237 -238 -236 0
240 239 238 0
243 245 241 0
-241 244 -242 0
-245 -243 241 0
243 -245 244 0
243 245 242 0
-241 243 -245 0
241 -242 245 0
244 245 243 0
244 -241 243 0
244 245 242 0
243 244 241 0
241 245 -243 0
248 -246 -250 0
-247 -248 -246 0
-247 246 -249 0
-250 -249 -248 0
250 -248 247 0
-246 -249 247 0
-248 -250 -246 0
-249 -246 248 0
-248 246 249 0
-249 -246 -247 0
248 -250 249 0
-247 -248 249 0
-253 -254 -252 0
-251 -253 252 0
-253 -255 252 0
-252 -251 255 0
-251 255 254 0
-255 252 254 0
252 -254 253 0
-252 -255 254 0
-252 -255 253 0
-251 253 -254 0
254 251 255 0
253 -252 251 0
-260 -258 257 0
259 -258 -260 0
-258 259 -260 0
256 -257 -258 0
259 258 260 0
-260 -256 258 0
-256 260 259 0
259 258 257 0
258 256 -260 0
-260 256 257 0
260 257 -259 0
-256 -260 258 0
263 -262 264 0
-261 -265 264 0
-262 261 265 0
-261 -262 263 0
-264 -261 -265 0
-261 -264 -262 0
-262 261 265 0
-264 265 261 0
-263 -264 -261 0
-263 -261 262 0
-263 262 -265 0
-265 263 -264 0
-269 -268 267 0
-267 266 -268 0
-269 267 268 0
268 -267 -266 0
269 270 -267 0
-267 -266 270 0
-270 269 267 0
269 270 268 0
270 269 -266 0
-269 -266 270 0
268 -266 -269 0
-270 268 -269 0
272 -274 275 0
-272 -273 275 0
-273 -272 275 0
-273 -271 -272 0
274 -273 -275 0
272 -271 -273 0
-271 -273 274 0
-272 275 273 0
275 273 274 0
271 -273 272 0
272 -275 -271 0
-271 -274 272 0
-278 -279 276 0
277 279 280 0
-280 277 -278 0
-276 -278 -279 0
-280 -279 277 0
-280 277 278 0
279 278 280 0
276 -280 278 0
277 -280 -279 0
276 -277 -279 0
280 279 -276 0
279 280 -277 0
284 282 281 0
285 -281 -283 0
-282 281 283 0
281 -285 -284 0
281 282 283 0
284 281 -285 0
-281 283 282 0
-284 -283 281 0
281 283 284 0
-281 -285 -283 0
282 -284 281 0
-283 -281 284 0
-286 287 -288 0
-286 288 290 0
289 286 288 0
-288 290 -289 0
286 -290 289 0
-289 288 -287 0
287 -286 -289 0
-289 290 -286 0
-288 -290 -289 0
289 -287 288 0
-289 -288 287 0
-290 289 -288 0
292 291 -293 0
-295 -292 -291 0
-293 -295 -292 0
-294 291 -295 0
-292 291 295 0
294 293 -292 0
-293 295 -292 0
-295 291 292 0
293 -295 291 0
-293 294 -295 0
-293 294 291 0
-291 295 294 0
296 300 297 0
298 299 -297 0
296 -299 -298 0
298 296 -297 0
298 297 -296 0
297 -296 300 0
-300 299 296 0
300 296 -298 0
296 -300 -299 0
296 299 297 0
-299 -298 297 0
-298 300 297 0
-304 -303 -302 0
-304 -301 305 0
-303 301 304 0
303 302 301 0
-304 -303 301 0
302 -304 -301 0
-301 304 -305 0
-302 -304 -303 0
-303 301 -302 0
-302 305 301 0
302 -301 -305 0
-301 304 -303 0
309 -308 307 0
-307 -310 -306 0
-308 -309 -306 0
310 -308 -306 0
-310 306 -308 0
306 307 310 0
306 -307 310 0
310 307 308 0
307 -306 -310 0
306 -308 -307 0
306 -309 307 0
309 307 308 0
-312 -311 314 0
-311 312 315 0
-312 -314 315 0
-312 -314 311 0
315 -312 -313 0
314 312 -315 0
-313 315 -312 0
-315 312 -311 0
312 315 -314 0
311 313 -312 0
314 315 311 0
315 312 314 0
319 318 -317 0
317 319 318 0
317 -318 316 0
317 319 -318 0
-320 317 319 0
316 317 -319 0
317 -320 -316 0
319 320 317 0
316 320 318 0
318 320 -319 0
-318 316 319 0
319 316 320 0
324 322 321 0
325 324 322 0
321 325 -323 0
321 324 -322 0
-325 324 -321 0
325 321 322 0
-321 -322 -325 0
-323 321 322 0
-324 -321 323 0
-325 -323 -321 0
-323 325 324 0
323 -325 -322 0
-326 -330 327 0
-328 -330 -327 0
326 -328 327 0
-329 -330 -327 0
-326 330 329 0
328 329 -327 0
329 326 330 0
327 326 -328 0
-330 -329 327 0
-329 327 328 0
328 327 -330 0
330 326 329 0
-334 331 -332 0
-335 -332 -333 0
-335 -334 333 0
-335 333 -331 0
335 -333 334 0
333 -335 -334 0
-333 -332 334 0
-333 -332 -331 0
333 335 334 0
-332 -331 -335 0
334 -332 -333 0
334 335 -331 0
-339 337 338 0
340 339 -336 0
-338 337 340 0
336 -339 -338 0
340 339 338 0
-337 338 340 0
338 340 -339 0
338 -336 337 0
339 340 -337 0
-338 -337 336 0
-336 340 337 0
339 -338 336 0
-342 -345 343 0
-345 343 -344 0
-341 -345 -344 0
-342 -344 -345 0
341 344 342 0
-344 345 -343 0
341 -342 -343 0
-344 -345 -343 0
345 -342 341 0
-342 345 -344 0
345 -343 344 0
341 344 345 0
349 -350 348 0
346 -348 -347 0
346 350 -347 0
-346 348 349 0
348 -350 -349 0
-348 -347 -350 0
349 -346 350 0
-348 -349 350 0
-349 347 350 0
-348 -347 -349 0
-346 348 -349 0
348 -350 -349 0
-352 -353 -354 0
352 351 353 0
354 351 355 0
353 -352 354 0
354 351 -355 0
351 -352 -355 0
353 354 352 0
-352 -351 353 0
351 353 352 0
-354 351 -352 0
355 -353 352 0
354 -353 351 0
356 360 -357 0
-356 357 -360 0
356 -357 -359 0
358 -359 357 0
-360 357 356 0
357 360 358 0
-356 -360 359 0
-358 356 -360 0
360 -359 -358 0
360 356 359 0
-360 -357 -359 0
356 -358 360 0
364 -365 362 0
-361 365 -364 0
362 -363 -361 0
365 -364 362 0
364 362 361 0
364 -361 363 0
-362 361 363 0
363 -365 362 0
-365 -361 362 0
362 -361 -363 0
365 361 -362 0
364 363 -362 0
367 -366 369 0
-369 -366 368 0
370 -368 -369 0
-366 368 -369 0
-369 -366 370 0
366 367 -370 0
366 369 367 0
370 367 -366 0
-370 -367 368 0
-368 -366 370 0
-368 -369 -366 0
-367 -370 -368 0
-372 -374 375 0
371 -374 372 0
-373 375 372 0
373 374 372 0
373 372 371 0
-374 371 -372 0
372 371 374 0
375 374 -371 0
-373 -375 -374 0
374 -373 -375 0
373 374 -375 0
-374 375 373 0
1 -6 0
6 -11 0
11 -16 0
16 -21 0
21 -26 0
26 -31 0
31 -36 0
36 -41 0
41 -46 0
46 -51 0
51 -56 0
56 -61 0
61 -66 0
66 -71 0
71 -76 0
76 -81 0
81 -86 0
86 -91 0
91 -96 0
96 -101 0
101 -106 0
106 -111 0
111 -116 0
116 -121 0
121 -126 0
126 -131 0
131 -136 0
136 -141 0
141 -146 0
146 -151 0
151 -156 0
156 -161 0
161 -166 0
166 -171 0
171 -176 0
176 -181 0
181 -186 0
186 -191 0
191 -196 0
196 -201 0
201 -206 0
206 -211 0
211 -216 0
216 -221 0
221 -226 0
226 -231 0
231 -236 0
236 -241 0
241 -246 0
246 -251 0
251 -256 0
256 -261 0
261 -266 0
266 -271 0
271 -276 0
276 -281 0
281 -286 0
286 -291 0
291 -296 0
296 -301 0
301 -306 0
306 -311 0
311 -316 0
316 -321 0
321 -326 0
326 -331 0
331 -336 0
336 -341 0
341 -346 0
346 -351 0
351 -356 0
356 -361 0
361 -366 0
366 -371 0
