p cnf 390 1013
5 4 -1 0
-2 -3 1 0
-2 -3 -4 0
-4 -3 -1 0
-2 5 4 0
-2 -1 -5 0
1 4 5 0
2 1 5 0
-4 1 -5 0
-3 1 5 0
5 -1 4 0
2 1 -4 0
-6 -10 -7 0
-7 -9 8 0
10 -8 -6 0
9 8 -7 0
7 -8 -10 0
7 6 9 0
-6 10 7 0
10 -9 7 0
8 10 6 0
10 -6 8 0
10 6 -9 0
10 9 8 0
13 12 -14 0
-15 -14 13 0
11 14 -15 0
14 12 15 0
15 13 -14 0
14 11 -13 0
-13 -15 12 0
12 11 -15 0
-15 11 13 0
14 -13 11 0
-12 -13 -15 0
14 -15 -11 0
-20 19 -17 0
19 -16 17 0
-17 20 -18 0
-16 18 20 0
-17 -16 -20 0
-20 -16 19 0
-20 18 16 0
-20 -16 17 0
16 17 -18 0
-20 18 -19 0
-17 -18 16 0
18 -16 -20 0
22 -24 21 0
-23 -24 -25 0
-22 -21 -24 0
-22 -23 -24 0
21 22 24 0
-21 23 -25 0
-24 22 25 0
22 -23 -21 0
24 -23 -25 0
21 23 24 0
-25 24 21 0
25 -22 -24 0
-28 -26 30 0
-27 28 -26 0
26 29 -28 0
29 27 -30 0
-28 27 26 0
-27 -26 -29 0
-30 -26 29 0
-29 27 26 0
29 30 27 0
-28 26 -30 0
-30 -26 28 0
28 -27 30 0
34 -35 -33 0
-31 33 -32 0
-34 32 -35 0
31 -32 -34 0
-32 35 -33 0
33 35 -31 0
-34 -35 -31 0
-35 -34 31 0
34 -33 32 0
-34 -31 32 0
-33 -32 -34 0
-35 -33 -34 0
39 -36 -38 0
36 -40 39 0
38 -40 36 0
-38 -40 36 0
-38 -36 -37 0
39 -36 -37 0
-40 39 -38 0
-40 38 36 0
39 -40 36 0
39 36 38 0
-37 39 38 0
38 37 36 0
42 44 43 0
-43 -45 44 0
-41 -43 -44 0
-45 41 42 0
-42 41 43 0
41 45 -42 0
42 43 44 0
-41 -43 -45 0
-44 -45 41 0
43 -44 -45 0
-42 43 -45 0
43 -42 45 0
49 48 47 0
49 -50 -47 0
49 46 -48 0
46 47 -50 0
-48 -46 49 0
47 -46 50 0
48 -49 47 0
-50 49 48 0
48 -50 -46 0
-46 49 47 0
-48 47 -46 0
-46 -50 48 0
53 -54 -51 0
52 -54 -51 0
-52 53 -51 0
52 -54 51 0
-52 -53 54 0
-54 55 51 0
-53 -51 54 0
-51 -54 -52 0
53 -51 52 0
51 -55 -52 0
-55 -54 52 0
52 -55 -54 0
59 -58 57 0
-58 59 60 0
58 -57 60 0
60 -59 58 0
-57 -56 59 0
59 58 -56 0
-56 57 59 0
-58 -56 60 0
59 57 60 0
-60 59 56 0
-59 -57 -60 0
-58 -56 57 0
-62 -61 -64 0
63 -64 -61 0
62 63 61 0
62 63 -65 0
64 -65 61 0
-63 -62 -65 0
63 62 61 0
-65 -62 64 0
-61 64 62 0
-62 63 64 0
64 63 65 0
-63 -62 -64 0
67 70 -66 0
-69 70 67 0
69 67 -66 0
-69 66 -67 0
-68 70 -66 0
-66 -68 69 0
66 -68 -70 0
-70 68 -67 0
70 -69 67 0
69 -70 -66 0
66 -68 70 0
66 -67 -69 0
-75 74 72 0
71 74 73 0
74 72 -73 0
-73 -75 -71 0
75 72 71 0
-71 -74 -73 0
-72 -75 73 0
-75 73 71 0
72 75 74 0
-71 -75 74 0
-71 -72 74 0
-71 -75 -72 0
80 78 -76 0
-78 80 -76 0
-77 -78 -80 0
-79 80 -78 0
79 77 78 0
-79 -80 78 0
76 80 78 0
79 78 -77 0
78 -79 80 0
76 -80 -79 0
-76 78 -79 0
-78 76 -77 0
-82 83 85 0
84 83 -85 0
83 84 -85 0
-84 -85 82 0
-82 -84 81 0
85 84 -81 0
-85 -82 -84 0
84 81 85 0
-84 -82 -81 0
83 -84 82 0
-84 83 81 0
-85 83 81 0
89 86 -88 0
88 -90 -86 0
88 -87 86 0
87 89 -86 0
-89 88 87 0
86 87 88 0
-89 -90 87 0
-87 -90 89 0
89 -86 88 0
-87 -90 -86 0
88 -86 90 0
-89 87 -90 0
-95 92 93 0
-93 95 -92 0
94 93 95 0
92 95 91 0
-95 -92 -94 0
-92 91 -94 0
-92 94 -91 0
-93 95 92 0
94 91 -95 0
95 92 -91 0
94 95 93 0
92 95 -93 0
98 97 96 0
-97 98 -96 0
-99 -97 -96 0
-96 100 -97 0
99 100 96 0
99 -97 100 0
-100 96 -98 0
-100 96 -99 0
-100 -98 -96 0
100 97 98 0
-98 100 -99 0
100 99 96 0
-105 104 -102 0
-104 -103 -101 0
-103 -101 -102 0
-105 -103 104 0
-101 -104 102 0
-104 -105 103 0
102 -105 -101 0
101 104 -102 0
102 -105 101 0
101 103 105 0
102 -101 105 0
-104 101 105 0
107 -108 -106 0
-109 -110 107 0
-108 -110 -106 0
107 -109 -108 0
-109 -108 110 0
109 -108 -106 0
-110 -106 109 0
108 -110 -107 0
-106 107 110 0
-106 -107 -108 0
109 108 107 0
110 109 108 0
115 -113 -111 0
112 -114 115 0
-114 -115 111 0
-113 114 112 0
112 115 114 0
112 111 113 0
-114 112 -111 0
115 114 -111 0
-114 111 113 0
-115 111 -112 0
111 -114 112 0
115 -111 -112 0
-116 120 118 0
-120 -119 -117 0
-116 -117 -118 0
120 -119 116 0
-117 -119 -120 0
-120 -117 -118 0
-120 117 -119 0
118 -117 -120 0
116 117 118 0
116 -120 -119 0
-117 116 120 0
-116 -120 -119 0
-125 -124 121 0
-121 -123 -122 0
-121 122 123 0
124 122 125 0
-124 -121 -122 0
-122 125 -121 0
124 123 -125 0
121 -124 123 0
-124 -125 -123 0
-125 -124 -122 0
123 -122 125 0
-125 123 -124 0
126 -129 -130 0
126 127 -129 0
-130 127 -128 0
-130 -126 128 0
126 -127 -128 0
-126 -128 129 0
128 -130 -126 0
128 127 130 0
130 -127 -126 0
126 128 -127 0
126 -127 -130 0
129 -128 127 0
132 133 131 0
134 -131 -132 0
-132 -135 134 0
135 133 132 0
-134 133 135 0
133 131 -134 0
133 135 -132 0
134 132 -133 0
132 -135 131 0
135 -131 132 0
-134 -133 -132 0
-132 -134 135 0
137 140 -139 0
140 -137 -139 0
-136 -137 -139 0
136 -137 -138 0
138 137 -140 0
136 -139 -137 0
-137 -138 139 0
-140 136 -139 0
-140 137 -139 0
-137 140 -138 0
-138 -139 -136 0
138 -140 136 0
145 141 -142 0
142 144 -143 0
-145 143 -142 0
145 143 144 0
-143 -142 -145 0
-145 141 143 0
144 -142 145 0
144 -143 141 0
143 -141 -142 0
141 -143 145 0
144 141 142 0
142 -144 -145 0
-149 150 146 0
-146 -149 -150 0
-147 -150 -146 0
-147 149 -146 0
147 -148 146 0
-150 149 146 0
-149 147 -146 0
147 146 149 0
-149 146 -150 0
150 147 -146 0
-149 -148 146 0
-147 -150 149 0
151 -155 -154 0
-155 -152 151 0
153 155 151 0
151 -153 155 0
-155 -154 -153 0
153 155 -154 0
-152 154 -155 0
155 -154 -151 0
-155 151 152 0
151 155 154 0
154 -153 -151 0
-152 153 -151 0
157 -160 156 0
-160 159 -156 0
-157 156 159 0
160 159 -157 0
-160 156 159 0
-159 156 -160 0
157 -159 156 0
157 156 160 0
-159 -160 156 0
-160 -159 -156 0
158 157 156 0
-157 159 156 0
161 165 -163 0
-161 -164 -163 0
-164 -162 163 0
-165 -163 162 0
-165 -162 163 0
-162 161 -164 0
-163 164 -161 0
163 -162 164 0
-161 -163 164 0
161 164 162 0
-161 -162 165 0
-163 161 165 0
-166 -168 -169 0
169 167 168 0
-170 -167 168 0
-169 -167 -166 0
169 167 -166 0
-166 170 -167 0
-168 -167 169 0
-169 -170 168 0
-169 166 168 0
-168 -167 166 0
170 167 -168 0
168 170 -166 0
-173 -174 171 0
-172 -175 171 0
-171 -173 -174 0
-173 172 -174 0
-171 -174 173 0
171 172 -175 0
172 171 174 0
171 175 173 0
-174 175 171 0
-171 174 175 0
-174 -173 -171 0
173 175 -171 0
176 179 -177 0
180 -179 177 0
-176 180 -178 0
-177 -179 -178 0
179 176 -178 0
-176 -177 -179 0
-177 176 179 0
180 176 -179 0
-179 -180 176 0
176 180 -178 0
180 -177 -176 0
176 178 -177 0
-183 -185 -182 0
-182 183 -181 0
182 183 -181 0
-185 182 -181 0
-185 -183 184 0
-184 -185 183 0
-181 185 -184 0
-184 -181 183 0
-184 -181 182 0
182 -184 181 0
-185 183 182 0
-181 182 -184 0
186 -189 187 0
190 189 187 0
187 -188 186 0
-189 -190 186 0
-188 -189 186 0
188 186 -187 0
-188 187 186 0
-188 186 -187 0
-189 -190 188 0
188 189 186 0
-186 -190 187 0
-187 -189 186 0
195 194 193 0
192 -193 -194 0
195 -194 -191 0
-193 -191 194 0
-195 -191 -192 0
-191 -192 -193 0
195 -192 -191 0
193 -194 195 0
194 -193 -195 0
-194 -191 -192 0
194 -191 -193 0
195 -193 192 0
-198 199 -197 0
196 199 -197 0
-196 -197 -199 0
-200 199 198 0
199 -198 -196 0
198 -200 199 0
-197 199 196 0
200 198 -199 0
196 197 200 0
198 -200 -199 0
-199 198 200 0
200 199 198 0
-205 -202 204 0
-202 -201 204 0
-205 202 -203 0
201 -205 -203 0
205 -202 203 0
205 -204 -201 0
-201 -205 -203 0
205 203 -202 0
204 201 202 0
-205 201 204 0
-202 204 205 0
-205 204 202 0
-209 208 -206 0
-210 -206 -207 0
207 -209 -206 0
210 -207 -208 0
-209 206 207 0
207 -209 -206 0
207 210 -209 0
208 -207 -210 0
208 210 -209 0
207 -206 210 0
-208 206 -207 0
210 -209 -208 0
211 213 214 0
-212 211 -215 0
-211 -214 -215 0
214 213 211 0
-211 -214 -213 0
-215 211 -214 0
-211 -215 212 0
214 211 -212 0
215 213 211 0
213 215 -211 0
-211 -213 -214 0
-215 212 211 0
-218 -220 -217 0
217 -216 220 0
217 -220 -216 0
216 217 -218 0
-220 -218 216 0
-220 -216 218 0
219 -220 218 0
220 -218 -216 0
220 -219 217 0
-216 219 -218 0
219 -217 220 0
-216 -218 220 0
224 -222 -223 0
222 224 223 0
223 225 222 0
-221 223 -225 0
224 -225 223 0
222 -223 224 0
223 -222 221 0
-222 223 225 0
225 -224 -222 0
221 225 224 0
224 225 -221 0
-224 223 -222 0
-227 229 230 0
226 227 230 0
226 -229 -230 0
-226 228 -230 0
226 -230 229 0
-229 -228 227 0
229 -227 226 0
-227 -228 -229 0
-226 -228 229 0
-230 -226 229 0
230 -227 -228 0
227 226 -229 0
233 -231 235 0
232 -231 234 0
231 233 232 0
-235 232 234 0
232 -234 -231 0
-233 -231 234 0
235 -232 231 0
233 -235 232 0
234 -232 -231 0
-231 -233 234 0
235 234 -233 0
-233 235 234 0
-238 240 -236 0
236 238 -240 0
-237 -240 -238 0
236 237 -239 0
-240 239 -238 0
240 237 238 0
237 -238 239 0
238 -236 240 0
-240 238 237 0
-238 240 239 0
236 -237 -240 0
-240 -236 237 0
243 242 244 0
241 -242 -243 0
244 245 -241 0
-245 241 -244 0
-244 241 -242 0
-242 243 -241 0
243 -244 -245 0
241 -243 245 0
243 -244 -242 0
-242 243 -244 0
243 -245 241 0
242 244 241 0
-248 250 -249 0
-248 -246 250 0
250 249 -246 0
249 -246 -248 0
-250 -248 -247 0
-250 246 -249 0
246 -250 247 0
249 246 -250 0
-247 246 249 0
248 -249 250 0
-246 -247 -250 0
250 249 247 0
-253 -252 251 0
254 -253 -252 0
-253 -252 -254 0
-253 252 251 0
255 254 -251 0
251 -253 -255 0
-255 251 -254 0
-255 254 251 0
254 -252 255 0
252 255 251 0
251 254 253 0
-254 251 252 0
-256 258 -257 0
258 260 -259 0
-258 256 260 0
259 -256 257 0
-256 -260 -258 0
-256 -258 259 0
-260 -257 259 0
258 257 -256 0
-258 -256 -260 0
259 256 -258 0
-260 -256 -258 0
-256 260 259 0
-262 263 261 0
-261 -263 -265 0
261 263 -265 0
-261 -264 263 0
263 -262 265 0
-264 262 -261 0
-263 -265 264 0
-263 261 262 0
265 264 263 0
-265 -261 264 0
-265 262 264 0
265 264 262 0
270 -266 -268 0
-270 268 -266 0
-267 -266 269 0
270 268 267 0
-268 266 267 0
269 267 270 0
269 -270 -267 0
-267 270 268 0
269 -268 267 0
-266 -267 -268 0
-268 -270 267 0
269 270 -267 0
-272 -273 -274 0
-272 -275 273 0
271 -272 274 0
274 -275 271 0
275 273 271 0
275 273 -271 0
271 -275 272 0
275 -272 274 0
272 -273 -271 0
272 274 275 0
-271 -273 -275 0
274 -271 272 0
-277 280 -279 0
-280 -279 -276 0
-279 -278 -280 0
-279 280 277 0
278 277 279 0
277 -278 279 0
-276 278 280 0
-276 277 -278 0
278 -279 280 0
-278 280 276 0
277 -280 276 0
276 277 280 0
-281 282 -285 0
-285 281 283 0
-282 284 281 0
-282 -285 -283 0
-284 283 -285 0
285 -283 -281 0
-285 -282 -281 0
-283 282 284 0
-282 284 283 0
285 281 -284 0
-284 281 282 0
-285 -282 281 0
289 287 286 0
288 289 -286 0
288 -289 287 0
287 290 288 0
-288 -289 -286 0
286 287 -290 0
288 -286 289 0
288 287 289 0
287 286 -289 0
287 289 -290 0
-287 288 286 0
290 288 286 0
-294 -293 291 0
292 -295 -293 0
293 -292 294 0
293 292 -295 0
-295 -292 291 0
-294 -295 -291 0
-294 -291 -295 0
-295 291 -292 0
-293 -294 295 0
294 -291 293 0
294 -295 293 0
-291 -292 295 0
-297 -300 -296 0
-300 -298 -299 0
296 -299 -298 0
-300 -297 299 0
-300 298 299 0
298 -299 -297 0
-297 298 296 0
-300 -299 -298 0
298 -296 297 0
300 298 -297 0
-299 297 298 0
299 300 296 0
-301 303 305 0
-305 -302 -303 0
-303 305 304 0
-305 301 304 0
-303 -302 304 0
304 302 -301 0
-303 305 -301 0
-302 -305 -303 0
305 304 302 0
-302 -304 -305 0
-305 -301 -302 0
-303 301 304 0
307 -306 -310 0
-309 306 307 0
307 -309 306 0
-307 -309 -306 0
-309 306 -308 0
-309 308 306 0
309 -310 307 0
309 -306 310 0
-306 309 310 0
-310 -309 308 0
-307 -309 306 0
307 -309 310 0
315 312 -313 0
311 314 -315 0
-312 315 311 0
-311 314 313 0
314 315 311 0
-311 -313 314 0
-313 314 312 0
314 -312 -313 0
-312 -313 -315 0
312 -311 -313 0
314 315 -313 0
-312 314 311 0
-320 319 -316 0
-318 317 -320 0
-318 320 319 0
318 -317 320 0
-316 -318 320 0
-319 317 316 0
-316 -318 319 0
-316 -317 -318 0
-318 -317 319 0
318 -317 319 0
-317 -318 -316 0
-316 320 -319 0
321 -324 -322 0
321 -322 325 0
325 -324 323 0
-323 -322 324 0
321 322 -324 0
-325 322 321 0
325 322 324 0
323 325 322 0
322 325 -324 0
321 -324 -322 0
325 -321 323 0
-322 -321 -323 0
-329 -327 -326 0
329 -327 -328 0
-329 330 328 0
-328 -330 -329 0
326 327 330 0
-330 -329 326 0
-327 -326 -328 0
326 -327 -329 0
-327 -329 330 0
-328 330 -329 0
330 326 329 0
330 -329 -327 0
331 335 333 0
-333 334 335 0
334 -331 332 0
335 -333 331 0
331 -335 333 0
331 -333 335 0
335 -332 -334 0
331 -333 335 0
331 335 332 0
331 332 -334 0
335 332 -334 0
-332 333 335 0
337 336 -339 0
-337 -340 -339 0
-339 -336 -340 0
336 -337 -339 0
337 339 -338 0
338 336 -340 0
337 336 -338 0
-340 339 338 0
-337 -338 -336 0
-340 -336 339 0
-338 337 -340 0
-339 -338 336 0
344 345 342 0
344 342 -345 0
341 343 -344 0
-344 342 -341 0
-343 342 345 0
342 344 345 0
-341 345 342 0
-345 341 342 0
341 343 -344 0
345 343 342 0
-343 345 342 0
-341 345 -343 0
348 347 350 0
349 -348 350 0
-350 -349 -347 0
348 -350 -347 0
348 346 -347 0
350 -348 347 0
349 348 -346 0
-348 350 346 0
-347 -346 349 0
-348 347 -349 0
346 349 -348 0
346 -349 -347 0
-355 -354 -353 0
-352 354 -355 0
-352 353 -351 0
351 354 -352 0
-351 -353 354 0
-355 353 352 0
354 -353 352 0
355 -354 351 0
-351 352 -355 0
-354 353 355 0
-352 353 351 0
-351 -354 -353 0
-356 357 -358 0
-360 -357 -359 0
-358 -357 -360 0
-359 -360 357 0
357 -356 359 0
-356 -359 358 0
-359 -356 -357 0
356 -357 359 0
360 358 357 0
-359 360 358 0
360 -356 358 0
358 -359 -357 0
361 -363 -365 0
-362 363 -361 0
-363 -361 362 0
-363 -365 -364 0
-361 -365 364 0
-361 363 362 0
364 362 365 0
-361 -363 362 0
365 361 -363 0
364 361 -362 0
361 -365 364 0
-361 -365 -362 0
367 370 366 0
366 369 -367 0
-370 368 -366 0
370 366 367 0
-370 -368 366 0
367 -366 369 0
-370 -369 367 0
-368 370 -369 0
-368 -370 366 0
367 -368 -366 0
369 366 367 0
370 366 369 0
371 375 -373 0
-372 374 -373 0
-373 -375 -372 0
375 372 373 0
-375 374 372 0
-371 -372 -374 0
375 -373 -374 0
373 371 372 0
-374 372 373 0
-375 -374 -371 0
-371 375 -372 0
375 371 -374 0
-380 -377 378 0
377 380 -379 0
-378 -380 376 0
-376 -380 -378 0
377 -379 376 0
-376 380 377 0
378 -379 -377 0
378 379 -377 0
-378 -379 376 0
376 378 -379 0
379 378 -380 0
-379 376 -378 0
-383 -382 381 0
-381 384 385 0
-383 381 382 0
384 385 -383 0
-381 -385 383 0
385 -382 -381 0
-385 381 -384 0
385 -382 -384 0
381 -383 -384 0
-382 -384 -385 0
-385 382 -384 0
385 -383 -382 0
386 387 389 0
387 -388 389 0
390 386 389 0
388 386 387 0
-389 390 387 0
390 386 387 0
-388 -389 -390 0
386 387 -390 0
-390 -386 -387 0
387 -388 386 0
388 -387 386 0
387 -390 -388 0
1 -6 0
6 -11 0
11 -16 0
16 -21 0
21 -26 0
26 -31 0
31 -36 0
36 -41 0
41 -46 0
46 -51 0
51 -56 0
56 -61 0
61 -66 0
66 -71 0
71 -76 0
76 -81 0
81 -86 0
86 -91 0
91 -96 0
96 -101 0
101 -106 0
106 -111 0
111 -116 0
116 -121 0
121 -126 0
126 -131 0
131 -136 0
136 -141 0
141 -146 0
146 -151 0
151 -156 0
156 -161 0
161 -166 0
166 -171 0
171 -176 0
176 -181 0
181 -186 0
186 -191 0
191 -196 0
196 -201 0
201 -206 0
206 -211 0
211 -216 0
216 -221 0
221 -226 0
226 -231 0
231 -236 0
236 -241 0
241 -246 0
246 -251 0
251 -256 0
256 -261 0
261 -266 0
266 -271 0
271 -276 0
276 -281 0
281 -286 0
286 -291 0
291 -296 0
296 -301 0
301 -306 0
306 -311 0
311 -316 0
316 -321 0
321 -326 0
326 -331 0
331 -336 0
336 -341 0
341 -346 0
346 -351 0
351 -356 0
356 -361 0
361 -366 0
366 -371 0
371 -376 0
376 -381 0
381 -386 0
