p cnf 250 1065
-61 -210 94 0
175 -151 48 0
51 -39 10 0
-201 -32 111 0
-97 198 106 0
-123 -82 68 0
183 -135 195 0
222 -51 16 0
-112 -134 20 0
109 -134 -32 0
168 68 -247 0
26 139 143 0
75 -157 -221 0
-149 23 -137 0
48 -159 35 0
-74 -219 -144 0
74 40 -48 0
107 79 -204 0
-120 112 -69 0
129 -187 217 0
155 189 -109 0
-33 126 -55 0
-195 190 -49 0
223 110 -151 0
209 27 109 0
46 223 188 0
84 -95 161 0
198 92 174 0
235 -147 168 0
-56 -1 -154 0
160 -90 63 0
118 -128 -111 0
110 -230 14 0
159 153 109 0
-182 -110 -180 0
110 178 193 0
-25 116 -129 0
164 33 -56 0
-235 -59 71 0
172 115 110 0
-161 -220 -187 0
-85 114 3 0
-246 -127 182 0
-245 156 242 0
94 43 -62 0
227 -166 -66 0
250 -113 115 0
-58 177 -144 0
26 63 -131 0
-106 -7 226 0
-44 236 209 0
-3 99 33 0
-188 -152 -215 0
225 22 85 0
94 232 -178 0
-120 247 -88 0
90 81 -196 0
-51 70 -208 0
182 58 -204 0
-150 26 58 0
-25 -80 -169 0
-49 -100 189 0
31 208 8 0
63 -106 31 0
97 -93 61 0
57 164 151 0
157 -176 236 0
-66 30 -35 0
-137 -72 234 0
-245 198 -248 0
16 108 246 0
-196 -239 147 0
-204 -240 -92 0
115 45 55 0
-115 -202 71 0
197 161 -194 0
218 109 -40 0
-147 152 -39 0
-12 -119 157 0
172 244 -102 0
19 -236 -85 0
-238 201 -63 0
-237 115 -49 0
4 -246 -203 0
33 -4 -5 0
-166 242 -233 0
-161 144 -158 0
209 21 125 0
-81 -62 120 0
158 105 234 0
161 128 248 0
-229 181 -72 0
3 -195 210 0
-107 81 245 0
101 191 -205 0
-158 139 42 0
-226 68 184 0
26 213 -53 0
172 -224 242 0
-36 4 102 0
152 -53 85 0
242 -203 101 0
-194 91 118 0
39 -15 -152 0
-130 -116 143 0
79 96 -133 0
-2 -179 -147 0
-142 -128 210 0
18 147 193 0
-122 -175 -222 0
-97 -178 -208 0
-154 -153 -148 0
-13 119 -31 0
-18 27 -135 0
-170 103 -39 0
118 32 83 0
110 -230 160 0
-207 48 123 0
155 -179 236 0
181 244 13 0
84 151 -187 0
124 -66 -174 0
-48 56 -2 0
-73 -146 53 0
170 44 -221 0
-98 -228 12 0
163 -39 126 0
-169 217 12 0
-189 -68 129 0
172 104 -64 0
-67 -122 -115 0
-197 -79 148 0
-143 32 157 0
46 -247 224 0
175 84 123 0
-11 20 46 0
-242 116 -250 0
-112 161 201 0
135 230 -87 0
-192 -131 61 0
239 117 -114 0
139 -209 48 0
216 -114 -71 0
-10 113 58 0
-26 218 123 0
246 -80 -166 0
-242 -12 -18 0
228 -109 -219 0
-242 -203 216 0
205 -225 41 0
59 -150 47 0
-190 -196 -47 0
67 -62 -100 0
-123 -178 138 0
-128 50 243 0
58 -156 -59 0
-87 116 152 0
235 81 -247 0
-107 -233 99 0
-191 170 224 0
-3 -77 19 0
107 81 -63 0
-36 -218 1 0
161 -157 117 0
-49 184 216 0
54 -171 -97 0
-214 -100 120 0
-226 32 -34 0
28 226 232 0
133 8 202 0
241 -108 -5 0
-166 -211 -189 0
187 -22 234 0
151 -16 -130 0
-123 240 -60 0
241 -4 146 0
-139 -232 127 0
216 -192 19 0
89 -129 -124 0
-144 179 29 0
120 -247 202 0
158 191 -197 0
213 -207 179 0
-122 -79 -12 0
203 -192 220 0
-185 32 8 0
238 245 243 0
-62 -57 13 0
-90 94 -124 0
102 -85 -51 0
-96 -107 -209 0
-224 233 70 0
159 115 17 0
-62 -125 -12 0
139 -86 -68 0
101 242 80 0
175 165 103 0
71 216 224 0
84 -56 -6 0
109 -187 -237 0
-164 -121 237 0
-98 164 127 0
207 -194 -105 0
-132 -172 -15 0
-188 138 147 0
-210 73 -145 0
-138 25 8 0
-50 117 -245 0
-120 -114 65 0
126 -180 124 0
189 95 -151 0
-156 60 172 0
160 -75 -234 0
-59 -71 18 0
-152 -169 111 0
-148 -49 -153 0
128 31 169 0
-41 151 111 0
26 -220 228 0
-114 -209 -118 0
-184 -131 169 0
-243 -56 -146 0
-249 -62 -215 0
44 97 -238 0
77 138 -26 0
-7 196 208 0
-213 -32 118 0
-98 -137 -5 0
152 -118 83 0
130 131 -65 0
-229 -246 -33 0
196 -123 70 0
62 57 -53 0
81 -50 -14 0
137 -216 192 0
23 -161 -67 0
158 124 44 0
-110 -156 129 0
-163 189 -86 0
-145 97 158 0
-50 229 49 0
223 -218 -187 0
112 176 -219 0
156 -225 -52 0
-187 -117 -3 0
69 48 131 0
-10 -152 -83 0
-186 -126 70 0
-5 -241 78 0
-37 -88 53 0
-10 -78 220 0
-173 -164 92 0
-233 -171 -154 0
-167 105 -146 0
-193 116 81 0
132 107 -166 0
-199 142 173 0
221 -159 46 0
215 -6 -244 0
188 -105 55 0
-152 148 -25 0
68 -234 212 0
-197 -48 -68 0
-229 193 95 0
20 182 243 0
210 -218 155 0
-179 -217 -150 0
182 58 -82 0
-4 -100 -229 0
-115 20 82 0
-163 80 -38 0
-98 -21 55 0
-45 -107 -148 0
-48 -202 -233 0
-159 112 -104 0
-217 236 -82 0
-135 -168 -8 0
-35 -77 59 0
157 -236 100 0
-167 -150 151 0
-172 -55 217 0
216 73 182 0
181 -170 167 0
178 -219 80 0
-235 -159 224 0
199 70 62 0
116 199 -43 0
175 -72 200 0
134 -235 -15 0
233 177 -20 0
-12 -240 36 0
249 220 214 0
18 -192 40 0
235 113 -19 0
-213 224 -197 0
131 135 140 0
-147 168 112 0
-195 -101 208 0
-17 -216 241 0
-11 -219 46 0
54 -214 72 0
-130 82 248 0
64 173 -226 0
114 -167 -54 0
202 -199 -194 0
59 42 75 0
236 -206 120 0
-229 -48 54 0
-126 -156 -247 0
110 70 -113 0
-179 -28 -207 0
-126 220 -42 0
197 245 162 0
133 5 26 0
241 187 -174 0
238 -146 -177 0
235 1 -246 0
-87 200 151 0
-82 -175 -48 0
141 -25 -116 0
-55 117 -21 0
113 -88 -121 0
83 -233 -248 0
43 -177 -14 0
-207 -13 122 0
-207 -71 -97 0
-28 13 -63 0
-193 -55 219 0
159 -113 101 0
-10 -39 -76 0
-108 -63 -158 0
197 103 238 0
43 -212 -247 0
-42 102 92 0
-58 -26 113 0
-67 -163 -42 0
-115 -113 80 0
232 175 -171 0
145 -122 124 0
-227 177 64 0
184 125 231 0
-25 -210 115 0
-69 -18 53 0
73 151 -160 0
-76 -62 -139 0
-212 -175 14 0
193 -139 -106 0
-156 -36 10 0
-121 -75 -47 0
139 118 51 0
-31 170 -139 0
-64 -88 -187 0
-98 -91 -119 0
-224 85 48 0
149 -121 -135 0
-175 -17 -191 0
-154 -248 -120 0
41 99 -148 0
63 -47 40 0
148 63 120 0
19 105 43 0
-57 36 -80 0
243 -162 -166 0
-39 -136 47 0
-187 -188 -215 0
-207 -131 -161 0
-55 180 -198 0
-37 -153 6 0
45 245 -178 0
-106 208 26 0
187 -7 18 0
-66 -134 24 0
65 -54 248 0
30 -152 63 0
-30 117 -74 0
-190 -48 74 0
111 -66 141 0
22 135 -229 0
-135 -5 -19 0
-44 165 112 0
82 112 -121 0
-90 -204 -151 0
71 -164 -68 0
-15 124 63 0
-40 -63 179 0
149 55 89 0
34 -233 176 0
-36 175 -112 0
220 124 -246 0
56 -154 228 0
-228 -154 152 0
-232 135 -92 0
210 -164 -101 0
-63 -231 -5 0
-245 -191 -213 0
-102 -20 -54 0
242 -151 -17 0
69 -92 -44 0
140 2 -205 0
-157 48 81 0
-18 157 -117 0
44 80 230 0
228 -62 -41 0
-119 -173 -158 0
-82 -248 128 0
-218 -27 66 0
138 -76 235 0
-111 -76 93 0
135 -83 -114 0
217 -228 -75 0
-147 -227 -118 0
56 97 -213 0
23 -29 111 0
-234 27 -203 0
-116 239 29 0
-249 -126 159 0
-226 218 -241 0
-78 229 44 0
-116 238 187 0
175 171 -14 0
87 -208 219 0
-106 -240 35 0
-205 -67 -151 0
109 68 65 0
151 238 -156 0
91 -217 157 0
71 -98 239 0
-77 -245 7 0
-143 87 47 0
-150 -37 -42 0
-96 -200 66 0
-128 -73 5 0
-250 234 -164 0
187 -133 121 0
-214 -75 194 0
177 82 -57 0
45 63 206 0
81 -141 128 0
-209 -164 148 0
42 23 -171 0
158 57 -237 0
-48 232 -243 0
146 -19 -106 0
58 211 -132 0
-79 212 -232 0
-14 -187 119 0
117 226 -118 0
52 -140 100 0
19 -27 -97 0
213 -101 248 0
-104 177 -243 0
-80 93 192 0
-104 133 -97 0
50 -123 -90 0
-157 -250 -44 0
-134 190 30 0
-225 100 -228 0
-30 -16 -206 0
139 54 120 0
193 -86 223 0
-226 -99 146 0
-62 111 -37 0
12 153 107 0
-190 -72 94 0
-125 -73 -227 0
178 138 129 0
201 42 15 0
-91 -198 224 0
-235 -32 -173 0
83 -45 193 0
-225 -59 -196 0
179 138 -242 0
-118 -208 105 0
-63 43 236 0
160 -23 -119 0
-25 171 -163 0
-245 -230 172 0
7 -196 -235 0
-96 -231 131 0
-201 61 -94 0
-63 -98 -225 0
-249 -10 247 0
181 -57 188 0
-13 233 83 0
157 153 -44 0
-210 -11 84 0
7 -233 -24 0
233 -148 34 0
-197 -69 182 0
-216 -247 -131 0
-132 241 219 0
-245 48 -93 0
-92 -99 -182 0
242 17 146 0
67 -36 -197 0
-84 -198 111 0
194 36 -1 0
193 -140 94 0
132 -80 39 0
-67 217 29 0
71 -70 64 0
32 151 1 0
-104 77 197 0
168 172 194 0
-231 -81 172 0
-179 -203 -62 0
-145 147 -150 0
243 220 -236 0
-37 -111 163 0
-175 -89 -75 0
246 -98 -27 0
-247 -101 25 0
220 -137 74 0
-151 -177 -238 0
174 -245 -212 0
-167 -147 -244 0
-215 -109 118 0
205 230 -236 0
220 20 1 0
-236 193 -52 0
109 -24 -32 0
53 -237 -52 0
49 -66 -88 0
-27 182 193 0
34 -129 174 0
-46 -22 -72 0
193 -128 17 0
190 -87 -90 0
-155 -169 -202 0
-76 -215 -58 0
74 -192 17 0
-209 207 -164 0
152 -223 -97 0
139 7 148 0
69 -13 -158 0
225 -57 -71 0
-123 -17 -118 0
-143 -108 133 0
57 73 193 0
96 -210 203 0
126 146 64 0
-164 234 -193 0
140 -228 -93 0
232 -24 -35 0
-60 33 26 0
171 148 -219 0
-144 -247 17 0
58 -9 -142 0
95 -29 -135 0
-110 -147 148 0
247 58 -74 0
98 -206 -58 0
87 -98 -220 0
-48 44 -77 0
-116 -172 -148 0
-24 229 -75 0
29 72 -207 0
-126 176 122 0
-112 -25 62 0
-89 -78 87 0
-1 -30 45 0
-234 176 -116 0
209 -27 -185 0
62 142 109 0
121 -186 111 0
-125 -7 -166 0
-18 -180 -80 0
-93 163 110 0
135 36 221 0
30 -185 -98 0
213 70 67 0
171 -53 173 0
71 -181 3 0
117 80 -81 0
-56 108 -157 0
-58 13 -190 0
-29 -235 28 0
-149 -200 -18 0
-93 121 25 0
133 125 -81 0
247 -34 -225 0
-225 -142 49 0
-46 196 31 0
-2 -87 -168 0
-127 8 225 0
-80 173 -204 0
-212 -139 95 0
-59 -76 -238 0
-48 31 -248 0
-30 165 -232 0
-72 -209 -202 0
-109 76 146 0
62 103 121 0
-52 117 131 0
-95 32 158 0
234 34 -21 0
25 -49 -173 0
87 168 158 0
185 -1 -108 0
157 98 -197 0
-74 20 -91 0
-201 189 85 0
-131 72 86 0
-145 -18 9 0
95 -94 -195 0
-237 166 33 0
-30 144 42 0
45 -142 19 0
16 114 78 0
234 7 -156 0
57 130 -200 0
191 -121 -166 0
149 63 -72 0
163 157 -147 0
-200 -186 -100 0
245 -58 233 0
-151 201 -225 0
194 125 14 0
-237 43 -216 0
-8 -201 -93 0
-112 57 -170 0
-243 162 -160 0
45 -243 -113 0
-195 71 206 0
-153 111 122 0
-204 -205 27 0
-70 189 236 0
-227 183 13 0
-103 -3 -192 0
29 -50 -16 0
-108 1 -173 0
-25 -166 -143 0
-138 -62 80 0
-231 -130 -157 0
-41 -188 -76 0
-218 -103 -96 0
21 12 -191 0
-146 -113 119 0
-36 -22 15 0
-49 -236 160 0
-229 51 -124 0
60 175 -139 0
-122 69 58 0
52 -178 17 0
77 215 -20 0
130 59 86 0
158 -177 -162 0
-242 -108 -170 0
92 237 -181 0
-43 199 164 0
185 124 244 0
88 181 -134 0
178 -176 -37 0
45 -6 184 0
37 2 -60 0
-163 -32 229 0
-134 248 -162 0
-38 -56 24 0
70 143 178 0
-110 -157 153 0
-119 -3 -21 0
196 -81 59 0
-181 -10 -215 0
19 215 -159 0
-132 -143 98 0
113 212 -228 0
110 -176 16 0
-119 -17 57 0
207 212 125 0
-105 -77 -225 0
220 -112 225 0
-58 -147 -52 0
230 133 -39 0
-167 -173 -69 0
-61 -164 111 0
-211 -197 111 0
-21 -82 -144 0
231 -233 -40 0
134 69 2 0
-47 -147 -197 0
-18 187 -76 0
-27 246 66 0
-249 -184 53 0
-245 -11 -107 0
-187 91 -124 0
-8 66 58 0
-171 250 -115 0
45 -248 20 0
108 128 98 0
27 -243 -154 0
103 -195 -246 0
-20 -220 151 0
-24 19 -118 0
-217 -174 -245 0
4 -231 -187 0
75 167 117 0
119 157 -111 0
132 217 10 0
223 190 -97 0
-155 64 237 0
103 199 -3 0
104 -210 -178 0
212 230 -74 0
-227 -80 -149 0
-59 -208 75 0
158 -6 164 0
-132 124 -109 0
170 -93 -121 0
67 48 -115 0
27 220 96 0
-68 176 99 0
45 3 -195 0
-49 -130 152 0
-123 240 -107 0
205 -93 4 0
25 152 134 0
27 -107 47 0
-188 86 57 0
-143 -10 173 0
160 -169 -70 0
13 -126 131 0
-118 -177 -82 0
225 132 34 0
-55 95 236 0
35 194 54 0
87 -116 -127 0
128 173 -200 0
117 219 147 0
180 -237 -189 0
-145 -174 -35 0
139 -173 225 0
141 -208 -174 0
-190 -135 191 0
-68 117 -90 0
-67 -245 -137 0
119 146 143 0
51 143 -137 0
-159 -109 -215 0
191 -78 -246 0
-40 -123 111 0
208 41 166 0
-194 35 97 0
31 -219 160 0
236 -215 -53 0
21 -53 118 0
-115 -204 -95 0
-211 -121 -249 0
-17 -81 194 0
-250 103 96 0
248 138 -71 0
-175 -49 -27 0
81 -65 165 0
87 -224 -42 0
-149 206 -115 0
-23 86 -193 0
153 -174 -163 0
-120 234 -159 0
-122 -228 -137 0
-228 -232 -177 0
-241 -165 200 0
-141 -29 -44 0
-187 -184 42 0
54 -67 -103 0
181 -161 91 0
-18 141 -77 0
-205 158 -67 0
-3 -48 -138 0
188 134 89 0
221 -239 -14 0
87 198 148 0
108 44 -114 0
-204 26 221 0
-200 -104 196 0
12 181 84 0
-8 -156 136 0
209 151 -77 0
194 -40 49 0
-40 131 128 0
-75 220 246 0
92 29 -80 0
-133 -89 238 0
170 173 -210 0
211 -250 107 0
171 14 -10 0
-148 90 165 0
-122 -230 213 0
-46 66 -74 0
-118 44 -143 0
-165 -238 -135 0
-159 165 -25 0
97 19 -111 0
141 176 204 0
-156 73 180 0
-19 148 -132 0
-125 -211 -95 0
157 144 133 0
-49 -42 -135 0
-223 235 -221 0
-146 42 -206 0
-176 65 -8 0
-219 34 -33 0
-212 -235 -80 0
40 -135 98 0
-222 197 99 0
-218 233 -195 0
-227 177 -79 0
-182 235 -143 0
152 20 -200 0
-111 41 153 0
-6 -191 -112 0
196 -68 65 0
-198 -143 97 0
-43 -146 -185 0
47 -214 -190 0
-200 -122 71 0
-180 -39 -160 0
193 248 -244 0
-115 38 89 0
-134 161 215 0
65 106 67 0
-79 -132 248 0
-190 225 74 0
159 39 -34 0
-193 -142 132 0
-102 139 -140 0
-186 11 -55 0
-122 9 -190 0
138 -77 -188 0
116 202 109 0
-38 24 -121 0
-130 -156 -29 0
119 226 -211 0
-42 -128 210 0
-20 -48 -117 0
117 243 -54 0
-213 -148 -51 0
235 26 -225 0
-44 -225 68 0
-177 -159 -74 0
-174 36 121 0
105 -47 -129 0
-63 -13 -38 0
-62 -149 45 0
217 -160 -213 0
-163 -70 178 0
77 231 153 0
-43 189 118 0
133 70 100 0
131 -178 246 0
-166 -229 214 0
-89 -244 176 0
-79 175 -65 0
7 -24 157 0
-163 114 37 0
-154 61 82 0
-149 30 214 0
-56 -220 93 0
209 197 39 0
219 169 -181 0
200 -54 -221 0
-49 -7 -106 0
-250 108 -126 0
-87 -44 -69 0
-156 -57 -98 0
-43 -218 -73 0
140 -220 -183 0
83 205 249 0
89 238 -19 0
-193 -244 -189 0
246 -64 -23 0
-159 110 -151 0
-157 217 -171 0
-129 -12 150 0
37 -3 111 0
-207 79 167 0
246 -121 -114 0
-75 230 -71 0
-42 -26 -238 0
-154 181 230 0
-246 31 -162 0
129 108 -244 0
56 51 -155 0
-15 229 23 0
-112 105 187 0
-113 229 159 0
226 180 87 0
-152 -120 -224 0
-92 -167 -121 0
-201 156 171 0
4 -191 -197 0
-38 -28 -61 0
-191 -214 -133 0
224 105 16 0
-89 -78 43 0
-246 184 46 0
-191 83 -112 0
-168 -179 212 0
-128 155 -146 0
-242 -160 -240 0
-145 240 -124 0
-241 161 223 0
-63 -149 227 0
-248 -133 168 0
223 -69 -226 0
-237 186 -19 0
-127 -28 -85 0
-111 -174 -182 0
-19 228 -133 0
-45 224 -72 0
-156 -123 -153 0
172 88 -44 0
171 143 -109 0
243 -155 -188 0
179 -143 -4 0
172 -74 -73 0
-8 -244 -53 0
63 -189 79 0
48 12 -54 0
11 -250 42 0
-149 -92 203 0
-66 85 166 0
119 -177 -23 0
-31 -141 243 0
-185 116 138 0
-113 175 142 0
-127 249 -146 0
-61 242 52 0
-59 170 -146 0
-49 203 74 0
-191 -138 185 0
62 1 85 0
-71 7 -158 0
-193 -130 -24 0
69 -191 -184 0
81 134 222 0
-145 -132 30 0
-195 -206 -87 0
-222 -92 228 0
-123 -161 -113 0
-72 -111 85 0
177 117 41 0
6 -91 1 0
242 182 58 0
40 65 229 0
166 20 -67 0
52 138 102 0
-225 -124 9 0
240 64 -19 0
166 182 4 0
248 -37 -2 0
64 -26 -237 0
248 -180 -246 0
197 99 49 0
-15 236 94 0
155 -164 208 0
-177 93 106 0
59 -55 -85 0
28 -113 -214 0
-213 -115 94 0
177 119 228 0
-86 129 -103 0
47 -243 -30 0
25 159 -117 0
-242 -157 45 0
120 58 3 0
-44 -70 -214 0
53 -76 160 0
211 -209 -138 0
48 194 125 0
-76 -53 138 0
159 76 153 0
1 237 143 0
117 234 88 0
-236 215 180 0
-5 -198 73 0
-19 16 -208 0
-71 214 -195 0
184 7 81 0
-189 215 -139 0
17 -209 -175 0
-40 225 57 0
-99 42 -207 0
-95 -35 -105 0
99 -26 -111 0
87 -155 219 0
-15 -45 -65 0
-161 -70 -149 0
-179 168 26 0
82 -164 174 0
208 128 191 0
-228 124 -112 0
55 19 56 0
86 24 241 0
-35 79 202 0
-108 88 43 0
-206 105 240 0
-142 242 -154 0
-247 134 3 0
76 199 43 0
71 9 193 0
-246 121 13 0
-131 197 -56 0
-166 -61 -133 0
176 132 112 0
-178 -24 163 0
-71 217 -200 0
70 248 -68 0
70 -122 -233 0
229 -155 -237 0
-108 -174 -182 0
-217 -93 91 0
165 154 162 0
145 10 218 0
54 -198 135 0
6 143 127 0
92 -57 -246 0
109 -185 -54 0
-123 246 190 0
-111 -68 85 0
-167 169 -78 0
218 -58 223 0
-101 172 -9 0
-48 -195 -206 0
-150 -91 -232 0
59 -132 -205 0
63 14 -27 0
249 -153 202 0
123 245 -75 0
-5 111 228 0
-239 -130 6 0
172 -82 206 0
162 147 -207 0
-5 -44 60 0
74 218 94 0
-88 -74 65 0
56 62 -149 0
-186 -232 249 0
-245 105 -92 0
190 -163 -164 0
14 172 42 0
18 -43 99 0
40 180 -217 0
-70 -211 63 0
-116 196 -36 0
4 220 44 0
-169 -92 -160 0
118 27 217 0
-79 -75 -1 0
-148 -236 146 0
-43 -13 -187 0
-13 54 -187 0
23 2 158 0
149 111 -188 0
151 154 -109 0
-152 -203 196 0
146 -45 -194 0
-172 27 59 0
-158 144 180 0
-154 -43 -204 0
-172 -114 164 0
211 246 -193 0
-133 -193 -234 0
129 232 241 0
209 124 -115 0
209 236 -107 0
