p cnf 400 1039
-5 -4 -2 0
-3 -5 2 0
2 3 -5 0
5 2 -1 0
2 4 1 0
5 -1 3 0
3 5 1 0
-4 5 1 0
-3 5 4 0
-3 4 -1 0
-3 -1 -4 0
2 -3 -1 0
7 10 9 0
10 7 -6 0
6 -8 -9 0
-10 -6 8 0
9 7 -8 0
-9 -10 -8 0
10 9 -8 0
-6 9 10 0
-9 6 -8 0
-7 10 -6 0
8 10 6 0
6 10 -7 0
12 14 -11 0
-15 14 -12 0
-12 -15 -14 0
12 11 14 0
-13 -11 15 0
15 -13 -11 0
-12 11 -13 0
12 -13 -15 0
-11 15 -13 0
-12 -15 -11 0
-12 11 15 0
14 12 11 0
16 -17 20 0
17 -19 18 0
-20 -19 -18 0
17 19 -20 0
-16 -18 17 0
-18 16 -19 0
-16 17 19 0
-19 16 18 0
19 20 -17 0
-18 -17 19 0
-16 -20 18 0
-16 -20 18 0
21 23 22 0
-25 -21 23 0
23 -25 -24 0
-25 24 -23 0
23 22 -21 0
22 -23 -21 0
-24 25 -21 0
-24 23 22 0
-24 -22 -23 0
-21 22 -24 0
-25 21 -22 0
25 22 23 0
29 -28 -26 0
28 -29 -30 0
28 30 27 0
26 -28 -30 0
26 -29 -28 0
-27 -29 30 0
-26 28 30 0
30 -27 -29 0
-26 -29 27 0
28 -27 26 0
-30 29 27 0
28 27 -29 0
-32 -34 -33 0
-32 -33 34 0
31 33 -34 0
33 -32 34 0
34 -31 33 0
-35 -32 -34 0
33 -35 -32 0
-33 -32 -31 0
32 35 -33 0
-31 -35 33 0
-31 33 -35 0
-33 -35 34 0
-36 -40 38 0
38 -37 36 0
-40 -36 37 0
-37 -36 -40 0
36 -39 38 0
-37 -40 36 0
-38 -40 36 0
-36 -40 38 0
40 -38 36 0
37 36 -38 0
39 37 40 0
36 -37 -38 0
-41 -42 -43 0
44 43 -41 0
42 -44 41 0
42 -41 -44 0
45 41 -43 0
-45 -44 -41 0
41 -45 -42 0
-45 43 44 0
-41 -45 44 0
-41 44 43 0
44 45 41 0
45 -43 41 0
47 -50 49 0
48 46 -47 0
48 -49 -46 0
46 -50 49 0
-47 -50 -46 0
-47 -48 49 0
-49 -46 50 0
48 -47 -49 0
-49 47 50 0
-47 50 -48 0
47 -48 -46 0
-46 -48 47 0
55 53 51 0
-52 55 54 0
-52 -54 -53 0
54 55 51 0
-55 -52 53 0
-52 51 -54 0
-51 52 -54 0
-52 -55 51 0
-55 -51 -52 0
53 -52 -54 0
52 -51 -55 0
53 55 -51 0
56 -58 57 0
-59 58 57 0
58 59 60 0
-56 57 58 0
-58 -56 -57 0
59 60 -58 0
56 57 59 0
60 -59 57 0
-59 -57 60 0
-56 58 60 0
58 -59 -56 0
-59 -60 -56 0
-62 -65 63 0
-61 64 63 0
64 61 -63 0
-62 64 63 0
-61 -65 -62 0
-64 -63 -65 0
61 64 62 0
-65 61 -64 0
-64 -61 -63 0
-65 -62 61 0
-61 64 62 0
-65 63 62 0
69 -67 -70 0
68 -66 -67 0
-70 -68 66 0
68 -67 -69 0
69 -66 67 0
-66 -67 68 0
-70 69 -68 0
-70 67 -68 0
69 67 -68 0
-70 68 -67 0
-70 -66 -68 0
-67 -68 -66 0
-73 -71 74 0
74 -72 -71 0
74 -73 -75 0
-71 73 -75 0
-74 -75 -73 0
74 72 73 0
-73 72 -74 0
-74 -72 -73 0
-73 72 75 0
-74 -72 75 0
-73 75 71 0
-73 -72 -71 0
-78 -76 -77 0
77 80 78 0
80 76 -79 0
-76 80 -77 0
80 -77 -79 0
80 76 78 0
79 -78 76 0
-80 78 -79 0
-77 -78 76 0
-77 78 -76 0
78 76 79 0
78 -79 76 0
-84 81 -85 0
85 -83 82 0
-81 -84 -82 0
81 -83 -84 0
-82 -85 -83 0
-81 -85 -84 0
82 83 -85 0
-81 -85 83 0
84 -85 81 0
-84 -81 -83 0
84 83 -85 0
-84 81 83 0
-87 -86 89 0
88 86 89 0
88 89 87 0
-87 -88 86 0
87 88 89 0
86 89 90 0
87 89 90 0
86 87 90 0
-86 89 88 0
86 90 -88 0
-87 -86 -88 0
86 -87 -88 0
92 91 94 0
-91 -93 94 0
95 -92 93 0
95 93 -91 0
-91 -93 -95 0
92 91 94 0
-93 -94 -95 0
92 94 95 0
-95 -91 92 0
-93 92 -95 0
-93 -92 91 0
-94 -91 -95 0
-98 100 -96 0
-97 98 -100 0
96 99 98 0
97 -96 99 0
97 96 100 0
-98 -100 -97 0
-98 -96 97 0
97 100 99 0
-100 99 -96 0
-96 -98 97 0
97 -99 98 0
-100 97 -99 0
102 -104 101 0
104 102 -103 0
-104 -105 103 0
-101 104 -103 0
-105 -102 104 0
101 103 102 0
-101 103 102 0
-101 102 -105 0
103 102 -104 0
-105 -101 104 0
101 104 103 0
103 101 -102 0
109 106 -108 0
-108 -107 -109 0
-107 108 -106 0
-108 107 110 0
110 -106 -107 0
-107 108 106 0
-106 -108 107 0
106 107 -110 0
-110 106 -107 0
-109 106 108 0
110 109 -108 0
-110 -108 106 0
-113 114 115 0
-112 114 -113 0
-115 113 -114 0
112 -114 111 0
114 -112 -113 0
115 113 111 0
-112 111 115 0
114 115 -112 0
-114 -111 112 0
113 -115 111 0
-113 -115 -114 0
-111 114 115 0
118 117 116 0
-119 118 -120 0
-118 -119 -117 0
119 -118 -120 0
-120 -117 119 0
-119 -116 -118 0
119 118 117 0
-118 -120 117 0
116 118 -120 0
-120 116 117 0
120 -116 -119 0
-120 -118 119 0
125 -124 122 0
122 125 121 0
-125 -124 123 0
124 -121 -122 0
-123 124 121 0
121 123 125 0
-123 -122 -121 0
-125 -122 -123 0
121 125 -124 0
-125 122 124 0
-123 -124 -122 0
-123 121 -122 0
-128 -129 127 0
-130 -127 129 0
-128 -130 -126 0
126 -127 -129 0
127 -128 -130 0
-126 129 130 0
128 127 129 0
-128 -127 129 0
-129 -128 -130 0
-129 126 130 0
-126 127 -129 0
-130 129 127 0
133 -132 -134 0
135 134 -133 0
131 -135 -133 0
-133 -134 135 0
-135 132 -133 0
-133 -131 134 0
-135 -131 134 0
-131 -132 134 0
-132 -133 131 0
135 -131 134 0
-132 134 135 0
135 -133 -134 0
-138 -137 140 0
140 139 -138 0
-140 137 -136 0
140 137 -136 0
139 -138 -140 0
139 140 137 0
136 140 -138 0
138 137 140 0
139 -136 140 0
138 -137 136 0
-140 -138 136 0
139 140 -136 0
141 -145 144 0
-145 141 142 0
144 142 141 0
-142 141 -143 0
-143 -145 142 0
-144 143 141 0
-143 141 -144 0
141 142 143 0
-145 142 141 0
145 -142 -143 0
143 144 -142 0
142 -144 -143 0
147 150 -146 0
146 148 -147 0
150 -149 -147 0
-148 147 149 0
149 146 150 0
-150 149 147 0
150 -149 -147 0
147 150 -149 0
148 149 147 0
150 -147 -149 0
-146 -148 149 0
146 -147 -149 0
-154 -155 153 0
151 154 153 0
155 154 -151 0
-155 152 151 0
-153 155 154 0
-151 -152 155 0
-151 153 152 0
154 -151 -153 0
153 154 151 0
-152 155 -151 0
-153 151 154 0
-154 -155 151 0
-159 -156 -160 0
157 -159 -158 0
-158 157 -159 0
158 -159 157 0
156 158 -159 0
-158 156 -160 0
158 157 156 0
159 157 156 0
-159 -158 -157 0
157 160 158 0
-156 -158 -157 0
156 -160 -159 0
163 -162 -165 0
164 -163 -162 0
-164 -162 165 0
162 161 -164 0
163 164 -162 0
-161 -163 -162 0
163 161 -165 0
162 165 163 0
163 162 -165 0
161 -163 162 0
165 -163 -164 0
164 -162 -165 0
-167 -170 168 0
168 170 166 0
-170 169 -166 0
-169 168 -167 0
168 -166 -167 0
-170 -169 -166 0
-168 170 -169 0
-169 -167 166 0
170 -168 167 0
167 170 168 0
170 166 167 0
166 -167 -170 0
175 -172 -173 0
171 -174 173 0
174 -175 172 0
171 174 -175 0
-174 -175 172 0
-173 -175 -171 0
174 -171 173 0
175 -171 -173 0
-175 171 -172 0
-173 175 171 0
-172 -173 -174 0
171 172 -174 0
180 177 179 0
177 179 -180 0
-178 179 -177 0
177 -179 -180 0
-177 -179 -176 0
-177 178 180 0
180 -177 -179 0
179 -178 -176 0
177 -180 179 0
179 176 -177 0
-180 -179 178 0
177 -179 180 0
-182 -181 -185 0
185 183 182 0
-184 -182 181 0
-183 -184 181 0
-184 183 182 0
-181 185 184 0
-185 182 181 0
185 -183 -182 0
184 -185 -182 0
184 -181 182 0
184 181 185 0
-183 181 184 0
-186 190 -187 0
-187 186 -189 0
186 -187 -190 0
189 -186 -188 0
188 -190 189 0
186 -190 -188 0
189 187 186 0
188 187 190 0
-190 -187 186 0
-190 -186 188 0
187 189 186 0
190 -188 -187 0
193 -192 195 0
-193 -192 191 0
-194 -193 192 0
191 193 192 0
192 -193 195 0
-193 -192 194 0
195 -192 194 0
194 192 -195 0
-193 -191 194 0
194 193 192 0
-195 194 191 0
194 191 -193 0
-200 197 196 0
197 -200 196 0
200 -196 -199 0
-200 199 197 0
197 198 199 0
-198 196 200 0
-198 -197 196 0
-198 -200 -197 0
196 -199 -198 0
-198 -197 -199 0
-196 -199 200 0
197 -198 200 0
-202 -201 -204 0
205 -204 -201 0
203 202 205 0
202 203 201 0
-204 201 -203 0
204 -202 -203 0
203 202 201 0
-205 201 -203 0
202 203 205 0
-201 205 -204 0
204 -205 201 0
203 205 201 0
206 208 207 0
-208 -206 -210 0
-209 -208 -206 0
-210 -209 -207 0
-209 -206 208 0
210 -209 208 0
206 208 -210 0
210 207 209 0
210 207 -206 0
-210 209 206 0
208 -206 -207 0
208 -210 206 0
215 214 213 0
213 -215 211 0
-215 214 212 0
214 211 215 0
213 214 -215 0
-215 -212 211 0
-213 -214 212 0
-215 213 -211 0
-212 211 -214 0
213 212 215 0
215 -211 212 0
-214 -211 -212 0
-218 216 219 0
-219 -217 220 0
-218 217 219 0
220 219 -218 0
-218 216 -219 0
217 -218 -216 0
-218 220 217 0
-216 220 218 0
216 -219 218 0
220 217 -218 0
-216 -220 219 0
217 219 -216 0
224 221 -222 0
-225 -224 -222 0
-222 224 225 0
-224 222 221 0
-222 -225 221 0
223 -224 -221 0
-225 221 224 0
224 221 -225 0
221 223 224 0
225 -221 224 0
222 223 -225 0
-222 -225 -224 0
229 -230 -228 0
228 -226 -227 0
-228 -229 226 0
-228 229 -227 0
-229 227 228 0
228 -226 230 0
-229 230 228 0
-227 -228 230 0
-230 -229 -227 0
226 228 230 0
-229 -228 -227 0
228 -227 229 0
-235 -233 232 0
231 -233 -235 0
231 233 -232 0
233 -234 -232 0
235 231 233 0
-232 -235 -234 0
232 -231 235 0
-235 -234 -233 0
234 -233 231 0
-235 -233 234 0
235 232 233 0
234 233 235 0
238 -240 -237 0
-236 239 -237 0
-238 237 -236 0
237 239 -240 0
-237 -238 -240 0
-240 236 -239 0
-240 237 -239 0
239 -236 -237 0
237 -240 236 0
-236 -237 239 0
237 -239 240 0
-237 -236 -239 0
-244 243 -241 0
245 241 -244 0
-244 -245 -243 0
245 242 241 0
-245 243 -242 0
241 245 -243 0
245 243 244 0
-242 244 -243 0
243 244 -241 0
-241 -243 -245 0
241 242 -244 0
-242 -244 245 0
247 -248 -249 0
249 -250 247 0
246 248 247 0
247 246 -249 0
246 -247 -248 0
-248 250 247 0
247 -250 -249 0
248 246 -249 0
248 -249 -247 0
-249 -248 247 0
-246 -249 -248 0
247 -248 250 0
-255 -254 252 0
-251 -252 -254 0
-254 255 -251 0
254 -252 253 0
251 252 -255 0
-253 -252 -254 0
-255 253 251 0
-253 -254 -252 0
-252 255 251 0
-255 254 -253 0
252 255 254 0
-253 254 252 0
258 260 257 0
260 -259 -258 0
-259 -258 260 0
257 -260 -256 0
256 257 -258 0
260 259 257 0
260 -256 257 0
256 -257 -259 0
-257 260 259 0
-256 -257 259 0
-256 258 -257 0
260 -258 -257 0
-264 262 265 0
-262 -261 264 0
-265 -262 264 0
265 262 -261 0
-261 265 263 0
-262 264 -265 0
261 -264 -265 0
-261 262 263 0
-261 -264 -265 0
265 264 -261 0
263 265 261 0
-264 -263 -261 0
270 267 -266 0
-268 -270 269 0
-269 268 -266 0
268 -267 266 0
-268 266 -270 0
268 267 -266 0
-267 266 269 0
-270 -267 -269 0
266 -268 -270 0
266 -267 -269 0
266 -268 -270 0
269 268 270 0
273 -275 -272 0
273 -275 272 0
272 -275 -273 0
-272 -273 -274 0
274 271 -275 0
-274 -272 -273 0
-273 271 275 0
272 -275 273 0
273 272 -275 0
-272 274 -273 0
-274 -272 275 0
275 -274 273 0
-277 -280 276 0
-276 -280 -277 0
-279 -277 -280 0
-280 -276 279 0
277 -279 276 0
-276 279 280 0
-279 -278 276 0
-280 -279 -276 0
-280 276 -277 0
278 280 279 0
279 277 -276 0
280 -278 -276 0
284 -282 -285 0
-284 -285 282 0
281 -285 283 0
284 285 281 0
-283 285 -281 0
-284 -282 283 0
-281 284 -283 0
283 -282 -285 0
-282 -283 281 0
-285 283 282 0
281 -285 -284 0
282 -281 285 0
-290 -289 288 0
-289 -287 286 0
-288 286 -287 0
289 -290 -287 0
-290 287 288 0
-287 -290 -286 0
-290 -289 286 0
-288 286 -290 0
290 -289 -288 0
288 -290 -287 0
287 -289 -288 0
-288 -290 289 0
294 291 292 0
293 -292 -295 0
291 292 -295 0
292 293 -291 0
295 291 -293 0
292 -291 293 0
-292 -295 294 0
-292 -293 295 0
-291 294 295 0
292 -291 -295 0
-293 295 294 0
291 -295 -294 0
298 -300 -297 0
-297 299 298 0
-300 -299 297 0
297 300 -299 0
-300 -298 297 0
-297 300 -298 0
298 -297 296 0
300 -298 -299 0
-298 -300 -296 0
300 -296 -298 0
298 -300 -296 0
-299 300 296 0
-303 -302 -304 0
303 -301 304 0
-305 301 -303 0
-301 -305 303 0
301 -305 -304 0
303 -301 304 0
301 303 305 0
302 -303 -301 0
304 -302 303 0
-303 -305 -304 0
-301 -305 302 0
-302 303 301 0
306 -310 309 0
-310 308 307 0
-307 -309 306 0
-306 310 309 0
310 309 -307 0
-307 -308 -309 0
-308 -309 306 0
-309 310 307 0
306 -310 -309 0
-310 307 308 0
310 306 308 0
-310 309 306 0
314 313 -311 0
-314 -312 -315 0
-314 315 -311 0
-312 -311 314 0
-313 -314 312 0
-311 -315 312 0
312 -314 -311 0
-312 314 315 0
315 313 -312 0
-313 312 315 0
315 -312 -314 0
313 -315 -312 0
-317 319 -320 0
-317 -320 -319 0
-319 -316 320 0
319 -317 -320 0
316 320 -317 0
-317 318 -320 0
319 318 316 0
317 318 -320 0
-318 -320 -317 0
-320 -316 319 0
-316 -319 -318 0
-317 316 319 0
-323 -321 -325 0
322 324 -321 0
325 323 321 0
-324 -323 325 0
-323 322 -321 0
-323 324 -322 0
324 -325 323 0
323 325 321 0
323 -322 325 0
321 -324 -325 0
-324 -321 -322 0
-324 -322 -323 0
326 -330 327 0
327 330 -328 0
327 -329 326 0
-328 -329 -330 0
326 330 329 0
-327 -330 326 0
-328 -329 326 0
329 -330 -328 0
-327 -326 329 0
-327 326 329 0
326 -328 330 0
-329 -326 -330 0
335 332 -333 0
-333 331 -332 0
-332 335 333 0
331 333 -334 0
334 -331 333 0
331 -334 -332 0
335 334 333 0
334 -332 333 0
332 333 -331 0
335 334 -333 0
331 -333 -334 0
334 332 333 0
-336 339 337 0
-339 340 -338 0
337 -338 336 0
337 340 339 0
340 338 337 0
337 338 340 0
-339 -337 -338 0
338 -336 -339 0
-339 340 -338 0
-337 340 -338 0
340 -338 -337 0
-336 337 -339 0
343 -345 -344 0
-342 343 341 0
345 -344 343 0
-345 342 341 0
-341 -343 -342 0
-345 343 -344 0
-342 -341 -343 0
-344 341 345 0
343 -341 -344 0
-343 341 -344 0
341 344 -342 0
343 -345 344 0
-347 348 -346 0
346 -347 348 0
350 347 348 0
-350 347 -346 0
349 350 347 0
348 349 -350 0
-349 -346 -347 0
349 350 346 0
-350 347 348 0
-350 -346 -349 0
-347 348 346 0
349 346 348 0
355 -351 352 0
-355 -352 351 0
-352 353 354 0
355 354 352 0
354 351 352 0
351 -352 -353 0
352 -351 355 0
354 351 352 0
353 -355 -354 0
353 354 352 0
-354 -352 355 0
355 352 354 0
-358 357 -356 0
357 -360 -358 0
357 360 358 0
360 359 -357 0
-357 -356 358 0
-360 356 -359 0
-356 360 -357 0
359 360 -358 0
359 -357 358 0
359 358 356 0
-359 -360 356 0
-359 -358 -357 0
365 -364 363 0
-362 364 361 0
-361 363 -364 0
-362 364 365 0
-362 365 363 0
363 -362 -364 0
362 361 -363 0
-364 362 365 0
363 365 364 0
-361 -363 -364 0
362 363 -365 0
-363 -364 362 0
-367 370 -368 0
-366 369 -370 0
-369 -367 370 0
-368 -370 369 0
-370 368 369 0
366 -368 369 0
-370 -369 366 0
367 -368 370 0
368 -369 -370 0
368 -366 367 0
368 -370 -366 0
366 370 369 0
375 -372 374 0
375 374 373 0
-372 -371 -375 0
-373 375 372 0
375 -374 -372 0
373 375 371 0
372 373 375 0
374 375 371 0
372 371 -375 0
-372 -371 374 0
-374 371 372 0
373 -374 371 0
377 -379 376 0
-378 -377 379 0
376 -377 -378 0
380 377 -376 0
379 -380 -378 0
-376 -377 378 0
-380 -379 378 0
-378 377 379 0
-376 378 -380 0
-376 379 378 0
-378 377 379 0
-376 -377 378 0
384 -381 -385 0
382 385 -384 0
384 -382 385 0
-383 384 -385 0
384 383 382 0
382 383 385 0
385 -382 -381 0
-383 382 -381 0
381 -385 -384 0
-385 384 382 0
385 383 -381 0
381 384 -382 0
-388 -387 386 0
-390 386 -387 0
386 -390 389 0
-387 -388 386 0
386 390 389 0
-390 389 -387 0
388 386 389 0
-389 -387 386 0
388 -386 -389 0
389 -390 388 0
390 -389 388 0
-388 389 390 0
-392 -394 -391 0
-394 391 -392 0
-393 392 -391 0
395 -393 392 0
391 -393 -395 0
-393 391 -392 0
395 -391 392 0
394 395 -392 0
394 -391 393 0
-393 -391 395 0
-393 392 -395 0
395 391 -393 0
397 400 398 0
399 400 397 0
399 398 -397 0
397 -398 400 0
-397 400 -396 0
397 -398 -396 0
396 399 397 0
396 -397 -398 0
-396 398 397 0
-397 400 -398 0
398 396 -397 0
-400 396 397 0
1 -6 0
6 -11 0
11 -16 0
16 -21 0
21 -26 0
26 -31 0
31 -36 0
36 -41 0
41 -46 0
46 -51 0
51 -56 0
56 -61 0
61 -66 0
66 -71 0
71 -76 0
76 -81 0
81 -86 0
86 -91 0
91 -96 0
96 -101 0
101 -106 0
106 -111 0
111 -116 0
116 -121 0
121 -126 0
126 -131 0
131 -136 0
136 -141 0
141 -146 0
146 -151 0
151 -156 0
156 -161 0
161 -166 0
166 -171 0
171 -176 0
176 -181 0
181 -186 0
186 -191 0
191 -196 0
196 -201 0
201 -206 0
206 -211 0
211 -216 0
216 -221 0
221 -226 0
226 -231 0
231 -236 0
236 -241 0
241 -246 0
246 -251 0
251 -256 0
256 -261 0
261 -266 0
266 -271 0
271 -276 0
276 -281 0
281 -286 0
286 -291 0
291 -296 0
296 -301 0
301 -306 0
306 -311 0
311 -316 0
316 -321 0
321 -326 0
326 -331 0
331 -336 0
336 -341 0
341 -346 0
346 -351 0
351 -356 0
356 -361 0
361 -366 0
366 -371 0
371 -376 0
376 -381 0
381 -386 0
386 -391 0
391 -396 0
