p cnf 200 852
13 -112 -38 0
-110 -156 121 0
-197 -25 22 0
83 63 55 0
-109 -56 -54 0
-172 -189 170 0
-143 83 65 0
-83 -91 -96 0
-147 103 -88 0
109 -11 87 0
121 -195 91 0
133 -56 -54 0
-17 -196 32 0
-80 81 -20 0
-45 58 -6 0
102 47 -40 0
-74 -148 121 0
-44 -171 18 0
-18 -63 -78 0
-25 -61 -54 0
-179 159 -7 0
-168 39 123 0
13 -59 99 0
72 149 5 0
-157 121 68 0
57 -13 -184 0
55 70 -130 0
-169 -84 -136 0
92 171 -52 0
-192 -3 -29 0
-76 -183 -92 0
5 -35 -81 0
-65 -35 113 0
-170 -42 -154 0
-33 181 -99 0
-36 99 -134 0
94 -119 -117 0
-67 -31 -61 0
59 132 -53 0
40 70 153 0
-54 85 66 0
131 170 -124 0
134 -175 -70 0
79 24 160 0
-181 -185 -23 0
-31 -144 90 0
146 -181 -62 0
84 92 131 0
112 -63 66 0
93 17 176 0
104 -168 -52 0
86 -9 -148 0
-51 198 102 0
-26 -142 -160 0
100 148 -31 0
73 136 56 0
124 -87 165 0
-196 43 193 0
-88 -64 -118 0
172 145 117 0
92 190 -116 0
62 98 -61 0
106 70 160 0
49 -11 87 0
122 20 -33 0
87 -90 92 0
141 -155 -67 0
23 -156 56 0
163 161 -46 0
5 -188 -41 0
10 145 88 0
157 -57 146 0
112 -129 -29 0
-48 -7 97 0
-125 -60 -147 0
-18 141 143 0
-86 -138 160 0
-106 -125 -140 0
85 174 114 0
-175 -195 -123 0
46 169 153 0
-150 188 116 0
-5 76 164 0
-138 92 -195 0
83 -84 -167 0
13 -126 157 0
187 166 177 0
139 -196 38 0
-179 94 63 0
-17 -63 166 0
-121 29 99 0
4 161 -113 0
-19 -141 -4 0
-70 134 129 0
-182 49 -56 0
101 38 59 0
83 174 -71 0
98 -186 82 0
74 5 -128 0
116 -122 15 0
-22 135 117 0
76 -61 -193 0
-159 193 42 0
31 -66 -15 0
47 53 -63 0
47 139 -117 0
183 -8 -79 0
198 -94 153 0
-16 83 65 0
143 63 -170 0
42 130 179 0
113 -81 -110 0
-73 190 3 0
158 166 -3 0
-169 20 -135 0
159 -165 -90 0
-1 -81 -16 0
192 -144 -114 0
120 115 80 0
137 127 75 0
4 -185 -195 0
-14 6 10 0
158 -140 88 0
112 -147 -77 0
8 71 143 0
-198 -37 85 0
4 35 127 0
-35 166 36 0
187 30 -188 0
-26 80 48 0
108 146 84 0
-94 56 -196 0
-63 37 108 0
-172 180 -165 0
-152 -26 86 0
85 59 -60 0
66 15 149 0
-52 -99 126 0
32 16 -31 0
25 -7 199 0
-196 -92 93 0
6 134 130 0
-125 193 -145 0
52 154 54 0
153 -79 174 0
-106 -103 -37 0
-173 178 197 0
67 197 -131 0
130 -141 -51 0
106 -59 113 0
198 134 1 0
186 153 52 0
-110 54 191 0
-165 -173 -9 0
117 104 -178 0
7 -163 169 0
139 -120 53 0
-185 -32 -29 0
92 58 91 0
117 87 -195 0
-177 -176 146 0
44 122 112 0
18 -136 112 0
35 -146 -189 0
-17 -7 -3 0
-183 27 -72 0
-148 46 75 0
-17 108 -47 0
-43 -73 65 0
1 95 -37 0
180 -94 -80 0
-87 101 -190 0
1 -158 -149 0
80 156 -134 0
-142 -28 -127 0
-50 -8 -61 0
-34 191 130 0
-46 177 -101 0
-48 35 -83 0
58 -177 79 0
-2 -168 -122 0
-80 30 -91 0
-93 87 -135 0
59 199 17 0
16 94 85 0
1 -151 25 0
-50 150 -76 0
-124 -57 46 0
-90 -41 -189 0
144 -33 -43 0
-47 70 -76 0
-73 30 9 0
171 -12 194 0
144 -11 -193 0
36 74 -33 0
128 -70 -1 0
-191 32 101 0
42 -129 -147 0
164 -70 -88 0
100 49 -160 0
161 15 106 0
-86 -80 72 0
-81 55 -160 0
38 -4 -99 0
-135 65 -198 0
-148 -68 183 0
-80 -126 142 0
198 -199 -121 0
56 165 -140 0
57 186 -149 0
88 -144 -132 0
105 94 72 0
-64 35 1 0
-100 51 -123 0
-134 91 -48 0
-20 102 136 0
187 -103 151 0
-177 30 66 0
-171 49 67 0
-75 -179 147 0
-86 32 149 0
-53 -182 60 0
116 68 -164 0
135 -63 -111 0
-95 -90 -168 0
7 63 37 0
-97 -42 81 0
82 178 -57 0
130 -135 -168 0
83 141 181 0
94 -179 -193 0
-45 189 29 0
191 -174 -169 0
-81 140 -171 0
150 -54 6 0
129 -21 -116 0
109 111 176 0
65 118 -13 0
-75 27 119 0
-122 -61 -191 0
137 -87 82 0
179 -200 -35 0
79 43 185 0
-84 -32 -170 0
180 30 -137 0
-124 18 130 0
-23 -179 107 0
182 -119 -49 0
-85 102 110 0
25 -191 190 0
76 36 170 0
-197 37 -43 0
-103 -157 62 0
110 145 56 0
-17 32 152 0
56 -197 92 0
-152 80 -23 0
-2 -172 52 0
-59 -102 68 0
-44 -84 -85 0
83 -40 -8 0
51 58 -66 0
191 95 34 0
67 140 50 0
-116 174 98 0
34 56 75 0
157 173 -7 0
86 125 -137 0
-125 -119 6 0
-118 -97 190 0
129 140 64 0
-106 -182 59 0
-24 71 -112 0
109 168 179 0
168 -39 169 0
24 115 49 0
187 66 -199 0
162 13 9 0
-102 -183 22 0
83 161 -34 0
124 -169 15 0
-198 137 184 0
-116 -91 -182 0
-127 -199 139 0
187 -93 190 0
9 -191 -98 0
131 193 199 0
105 -89 173 0
-187 129 -119 0
97 57 189 0
30 -144 29 0
56 34 18 0
-189 -51 -155 0
102 159 -118 0
-35 82 -181 0
177 -2 157 0
-168 174 -155 0
-154 -197 -87 0
-127 -121 16 0
-177 41 -101 0
-197 86 -19 0
-196 -85 -131 0
33 -156 106 0
92 -87 60 0
-191 143 -170 0
-137 114 175 0
-33 -144 -184 0
155 74 -121 0
69 105 -52 0
163 80 14 0
81 140 68 0
-57 -117 -35 0
-15 107 16 0
115 153 -35 0
-65 -103 122 0
174 -33 -180 0
-199 59 -18 0
41 143 167 0
-117 -112 -200 0
-181 -5 152 0
144 98 -112 0
-184 93 -190 0
-74 -113 -26 0
77 -80 -111 0
182 142 -19 0
-7 21 -184 0
93 64 -118 0
-89 124 1 0
-164 -156 -36 0
-131 -39 36 0
-43 145 175 0
193 102 -105 0
39 45 156 0
105 -148 24 0
-101 -191 153 0
10 39 -61 0
82 -129 61 0
146 -186 -78 0
-91 188 31 0
-163 -183 144 0
103 182 61 0
-171 123 -121 0
179 152 19 0
25 185 58 0
-181 -60 48 0
98 -175 -32 0
-110 -28 -36 0
1 -28 50 0
-37 -70 -109 0
-94 -69 -195 0
-25 -151 -177 0
71 67 -186 0
-59 106 -137 0
-55 -189 -166 0
-76 -86 166 0
180 98 -183 0
151 -148 125 0
-187 60 -175 0
-70 -75 120 0
50 -26 89 0
67 169 49 0
-100 128 24 0
-149 -57 31 0
187 139 106 0
-146 -29 22 0
155 182 88 0
5 148 -18 0
129 -81 -175 0
45 -77 -76 0
-30 -18 -155 0
-70 104 -185 0
170 -181 147 0
-70 17 118 0
-87 -25 -8 0
-156 167 168 0
-127 122 8 0
-18 -101 17 0
139 -154 188 0
88 -41 -13 0
153 -17 83 0
-176 -123 -106 0
-190 -26 159 0
126 -45 26 0
52 194 72 0
100 -21 76 0
-157 -177 -192 0
-130 -52 182 0
-170 -190 28 0
7 -108 153 0
134 -135 21 0
72 156 30 0
98 59 137 0
17 -34 147 0
-13 123 161 0
199 -137 -113 0
-173 -134 -89 0
126 164 112 0
87 96 82 0
-108 -52 -142 0
-58 -124 -115 0
-16 108 -154 0
-32 161 111 0
-184 164 74 0
136 167 -106 0
-101 190 111 0
108 192 -28 0
-12 4 -167 0
181 -103 8 0
-101 112 -24 0
120 64 199 0
169 96 -160 0
160 -76 -39 0
-50 119 177 0
106 88 -103 0
129 133 -80 0
42 -10 -124 0
144 56 39 0
100 22 158 0
198 65 137 0
-199 -159 -132 0
-78 90 192 0
193 6 -86 0
23 123 -72 0
167 189 -24 0
-101 27 -59 0
-90 111 -11 0
120 -13 70 0
156 -166 -78 0
-41 -109 40 0
-120 -102 -34 0
189 110 -88 0
181 -153 174 0
-29 86 -112 0
89 116 -55 0
114 -84 171 0
-71 120 -139 0
-98 -134 -18 0
86 -178 142 0
-148 -136 -50 0
-5 -39 -70 0
-192 102 78 0
-166 84 -190 0
135 102 -42 0
-70 145 91 0
-175 126 -52 0
-4 -9 71 0
132 -63 -47 0
185 -191 -84 0
119 -104 -114 0
-120 57 -182 0
-46 -89 -137 0
9 -106 -42 0
-194 -43 3 0
-171 -58 -5 0
121 -171 76 0
102 -1 -12 0
149 -130 135 0
162 -129 45 0
198 45 98 0
-78 39 190 0
-58 -134 145 0
130 -168 87 0
60 -73 119 0
27 200 -178 0
123 92 -194 0
-38 98 -144 0
-75 -127 50 0
188 -121 133 0
-53 73 -63 0
-18 169 122 0
118 -193 109 0
82 79 -160 0
98 22 -93 0
188 200 -134 0
98 54 -75 0
98 166 18 0
7 46 83 0
-24 -86 -182 0
-177 -181 12 0
-49 155 -21 0
-48 155 -187 0
-147 52 137 0
153 14 172 0
-145 57 156 0
21 -87 163 0
54 167 -115 0
170 -126 156 0
-106 122 -119 0
125 -40 -47 0
-82 -109 -126 0
-71 -189 106 0
-39 -73 -4 0
18 -187 74 0
95 105 173 0
35 167 -101 0
-146 91 -113 0
139 94 -199 0
141 -142 -79 0
38 -154 -169 0
84 -107 -184 0
150 67 -200 0
-49 36 42 0
-148 -39 136 0
198 -93 -170 0
-35 112 172 0
-46 2 -49 0
-157 152 54 0
44 153 62 0
-14 -2 -160 0
-88 94 -78 0
146 -126 116 0
-37 111 26 0
-185 62 189 0
-63 -98 130 0
16 192 -94 0
180 140 -91 0
174 -77 -119 0
41 149 135 0
-118 43 -44 0
29 120 -45 0
-45 48 -158 0
-147 197 -4 0
44 73 83 0
-15 197 64 0
173 16 -30 0
24 81 144 0
83 -145 88 0
60 182 116 0
-198 92 141 0
143 175 129 0
-179 -35 -121 0
-73 -1 -194 0
-89 -133 -17 0
-83 -30 66 0
-107 -139 -167 0
-167 135 -128 0
-41 -52 -97 0
17 30 -67 0
-101 -5 82 0
43 -163 -197 0
-40 135 160 0
66 26 -164 0
-107 102 100 0
157 164 137 0
-195 -36 52 0
196 68 82 0
99 91 -13 0
-161 -137 87 0
-175 168 -102 0
178 136 -134 0
-161 133 106 0
1 43 -19 0
-50 -37 28 0
61 104 -33 0
126 133 87 0
33 78 -149 0
-160 176 103 0
-91 7 180 0
187 186 -13 0
-22 17 148 0
-103 98 1 0
-33 -171 -192 0
197 -5 178 0
145 26 -112 0
57 -195 149 0
-142 150 -56 0
-135 -17 54 0
-65 -6 34 0
-200 -92 93 0
122 -95 128 0
-115 197 183 0
-166 3 -111 0
-60 -195 -87 0
-194 -191 -35 0
-178 -71 -90 0
-159 -87 119 0
-38 -147 -160 0
128 -89 -177 0
-148 -154 6 0
-104 165 124 0
-82 -199 162 0
-132 87 62 0
58 -169 174 0
-2 174 8 0
-165 -8 122 0
135 122 76 0
-40 -50 7 0
187 19 -34 0
147 -88 59 0
130 -95 -146 0
32 -55 59 0
2 8 -173 0
74 -189 99 0
86 88 112 0
-126 -36 118 0
172 194 -22 0
-7 100 -33 0
34 5 -26 0
86 182 -123 0
-78 -132 -125 0
19 16 -6 0
-57 24 -76 0
165 49 -76 0
-13 187 140 0
187 -4 -141 0
100 -91 -51 0
21 -52 -133 0
-107 32 -186 0
-72 9 -133 0
-143 181 33 0
15 -47 -39 0
-66 8 -190 0
-66 149 144 0
-44 -137 173 0
125 38 96 0
189 155 165 0
-39 -114 -160 0
-120 20 -31 0
153 74 -196 0
151 30 88 0
-98 54 -39 0
178 -27 24 0
26 -198 -184 0
158 77 173 0
-108 49 151 0
155 -175 30 0
46 -97 -169 0
6 -150 165 0
-89 150 80 0
-169 -62 50 0
-88 10 -178 0
96 70 -67 0
194 -9 162 0
-60 -98 -73 0
-192 -163 -53 0
-193 38 103 0
170 53 134 0
-91 165 -27 0
188 -102 143 0
-6 -92 -23 0
34 38 49 0
147 16 -26 0
51 8 145 0
83 -146 140 0
-16 54 -88 0
155 -3 4 0
-19 67 -172 0
130 -75 -89 0
-111 154 -177 0
196 24 -60 0
102 -199 -180 0
-168 -199 -114 0
-28 166 29 0
14 -57 105 0
25 -90 -55 0
-122 16 61 0
143 -63 -16 0
60 -77 78 0
-151 -71 -29 0
176 134 -101 0
24 57 184 0
156 187 200 0
158 189 -40 0
27 171 134 0
-51 -179 182 0
-74 23 -27 0
48 -100 -80 0
-154 -127 -48 0
-178 -89 -38 0
-151 -198 -118 0
152 -36 158 0
-43 -24 -175 0
98 15 -140 0
-173 -64 66 0
52 -196 144 0
175 -153 115 0
-179 -122 -77 0
148 27 126 0
160 82 117 0
31 -198 40 0
154 22 64 0
63 16 -29 0
-14 -68 -142 0
64 96 -198 0
-50 66 -76 0
52 2 -110 0
173 -163 93 0
82 -45 189 0
170 -124 153 0
-4 -44 -100 0
33 -39 -106 0
160 -39 -106 0
45 47 -132 0
105 -152 179 0
-7 19 153 0
28 77 71 0
106 138 -2 0
121 -22 199 0
69 -164 185 0
-6 -137 122 0
-190 51 105 0
-100 164 195 0
-117 -70 -111 0
149 134 -166 0
189 -134 192 0
23 -136 99 0
-107 -89 87 0
-24 -155 -158 0
86 89 -66 0
-192 121 -44 0
133 -35 182 0
-179 -22 -1 0
156 96 176 0
-168 6 -34 0
32 166 156 0
-35 -75 -175 0
-72 153 -193 0
53 84 -48 0
182 147 -67 0
31 170 -153 0
16 -185 -4 0
134 -160 -27 0
9 -100 -72 0
-52 -136 -93 0
-154 186 -138 0
-194 149 -148 0
195 34 -110 0
-166 -128 46 0
-48 -102 -9 0
30 168 182 0
-111 73 -104 0
-10 -111 102 0
-110 14 -118 0
58 -154 187 0
-147 56 93 0
160 -48 54 0
155 -139 -183 0
-139 -112 -190 0
6 5 59 0
-84 -32 77 0
-26 111 70 0
147 177 156 0
-91 131 130 0
29 93 180 0
-164 -150 26 0
50 85 -28 0
51 -133 -153 0
32 22 -46 0
174 41 126 0
60 -131 -167 0
72 -126 -145 0
140 -88 -108 0
-45 72 150 0
104 -122 -142 0
-50 -113 140 0
22 -84 -96 0
-119 -84 -141 0
61 -140 -142 0
-92 97 171 0
53 -164 11 0
-178 13 -182 0
170 192 -82 0
-82 -86 161 0
20 -134 184 0
-6 -14 17 0
-162 -15 127 0
67 159 -166 0
93 -137 43 0
136 94 -112 0
-5 99 -191 0
-186 51 44 0
-129 30 70 0
59 4 22 0
76 3 -71 0
-68 70 13 0
66 -146 -21 0
66 -166 -181 0
152 195 170 0
-1 106 122 0
-167 -81 86 0
-91 128 -148 0
167 -22 127 0
82 92 168 0
-162 100 -200 0
26 -25 -49 0
143 -82 34 0
-126 -43 141 0
48 -159 -126 0
-42 -195 91 0
13 -30 136 0
135 -110 -63 0
-65 9 -139 0
81 -29 -108 0
-12 50 -142 0
141 -28 -61 0
166 -9 59 0
160 25 -117 0
-136 -37 77 0
199 134 -129 0
-116 129 28 0
48 -155 -10 0
-105 60 88 0
118 -137 -189 0
79 -187 72 0
108 -167 -74 0
40 49 -151 0
69 -102 78 0
-82 -161 103 0
94 -121 61 0
73 200 -156 0
79 -139 -23 0
107 33 -114 0
170 138 12 0
-125 -96 55 0
140 29 175 0
193 -167 103 0
-4 -101 -33 0
-62 34 49 0
-95 198 -108 0
-28 -30 83 0
109 -57 -120 0
-30 118 -91 0
38 56 123 0
197 18 -6 0
-198 90 -185 0
97 -109 -189 0
50 -150 49 0
-124 60 88 0
123 48 -55 0
196 130 91 0
41 -151 -99 0
-192 -52 77 0
185 -151 22 0
-197 131 -17 0
87 -66 171 0
169 15 -61 0
155 -1 80 0
-42 -189 -110 0
100 -28 55 0
-41 -110 -27 0
145 41 164 0
158 150 -57 0
84 -137 -77 0
-57 -52 -13 0
-115 -33 -185 0
-94 140 157 0
150 -170 19 0
-65 29 40 0
-195 60 -109 0
64 -197 189 0
44 -78 -92 0
174 7 -36 0
