p cnf 370 961
-1 -2 -3 0
5 -4 1 0
-4 1 -3 0
3 1 2 0
1 -3 4 0
-4 -1 3 0
5 -2 4 0
-5 3 -2 0
5 4 -3 0
-5 2 4 0
1 5 -4 0
-4 3 5 0
-8 -6 7 0
-8 6 9 0
7 9 8 0
-7 -10 8 0
-6 -9 7 0
-8 7 -9 0
9 6 7 0
7 -10 6 0
6 -9 -7 0
7 -8 -10 0
-9 -6 -7 0
-7 9 6 0
-15 -12 -11 0
-11 14 12 0
11 15 13 0
14 -12 13 0
-13 11 15 0
12 -13 15 0
-14 -12 11 0
11 13 -15 0
-11 14 -12 0
-12 13 15 0
14 -12 13 0
14 -15 -13 0
19 -18 16 0
-18 -19 20 0
-19 16 -20 0
-20 19 -16 0
-16 20 18 0
-16 19 -20 0
-16 17 -19 0
-16 -17 20 0
-19 18 17 0
19 18 17 0
16 -19 20 0
-20 -19 17 0
23 21 -24 0
-21 -22 -25 0
-22 25 21 0
-25 -23 22 0
-24 23 22 0
-21 24 -22 0
-23 -21 25 0
-22 -23 -24 0
22 24 -21 0
-21 22 23 0
22 -24 23 0
25 -24 -23 0
-26 27 -30 0
28 -29 27 0
-29 -27 30 0
26 29 30 0
30 29 -28 0
-30 -26 29 0
-27 28 -26 0
-27 29 28 0
30 26 27 0
-27 28 26 0
-28 29 26 0
-30 26 28 0
-34 -32 -31 0
35 -31 32 0
31 32 34 0
-34 32 -35 0
-35 -32 -31 0
34 33 31 0
34 32 -31 0
32 -31 34 0
-32 33 -35 0
-31 34 -33 0
-31 -35 -34 0
34 33 -35 0
-38 -36 40 0
36 -37 39 0
-39 -37 -40 0
36 38 -40 0
-37 -40 -39 0
39 40 -37 0
38 -37 -40 0
37 36 39 0
37 -36 -40 0
39 -38 -36 0
-37 40 -36 0
38 39 -37 0
-45 -42 -44 0
-42 -43 41 0
45 44 -43 0
41 45 44 0
42 45 -43 0
42 -41 -45 0
-41 -45 -44 0
-43 -42 -45 0
-41 -42 -44 0
45 -44 41 0
-43 -45 41 0
-44 -43 -42 0
49 46 47 0
49 47 -48 0
-47 49 46 0
50 -48 -47 0
48 46 47 0
49 -47 -46 0
49 -47 -48 0
-48 46 49 0
-50 46 -47 0
50 -48 49 0
47 48 -50 0
-46 -50 -47 0
-51 -53 55 0
54 53 -51 0
54 -53 -55 0
51 -52 55 0
-54 51 -52 0
-53 55 51 0
-51 55 54 0
-53 -52 -54 0
55 -51 -53 0
-55 -53 -52 0
54 52 -51 0
52 53 -51 0
60 -59 -57 0
-57 -59 56 0
-59 -57 -58 0
58 -60 59 0
-57 58 60 0
59 57 56 0
-57 -56 -59 0
57 59 58 0
-56 -60 -57 0
57 -60 59 0
-56 -57 58 0
56 59 -60 0
62 -65 64 0
65 -63 64 0
61 -63 64 0
63 65 -62 0
-61 64 62 0
-65 -64 61 0
-62 63 64 0
-62 -63 -61 0
63 65 -61 0
62 -61 65 0
-65 61 -64 0
-61 65 -62 0
-66 -69 67 0
67 70 -69 0
-66 -67 70 0
66 68 67 0
-70 66 -68 0
69 -67 70 0
69 -70 66 0
-66 70 -68 0
69 66 70 0
70 68 -69 0
-69 -68 67 0
-70 -69 68 0
-73 72 74 0
74 75 72 0
-75 74 73 0
-75 -73 74 0
-72 -75 -71 0
71 73 -75 0
71 73 -74 0
72 -71 -74 0
72 74 -73 0
-75 -71 74 0
-72 73 -75 0
-74 75 72 0
-77 79 -80 0
-77 -78 76 0
76 -79 -80 0
79 -76 77 0
-76 78 80 0
79 80 -76 0
76 -80 77 0
77 -78 -76 0
-78 -79 -80 0
77 -80 -78 0
-79 -76 -80 0
79 78 -76 0
84 82 -85 0
-82 85 -81 0
85 -82 -84 0
83 -81 -84 0
-85 -84 83 0
-83 82 81 0
-84 -85 82 0
-84 82 -83 0
82 -83 -81 0
85 -81 84 0
-84 83 81 0
-81 -85 84 0
90 -86 -88 0
-90 86 -89 0
90 88 -87 0
-88 -86 -89 0
89 90 -86 0
-88 -90 89 0
-90 88 -86 0
-90 -89 87 0
87 86 88 0
-89 -86 88 0
89 -88 87 0
88 89 -90 0
93 92 -94 0
-91 95 -93 0
-93 91 94 0
-91 -94 -92 0
92 -93 91 0
-93 -91 -92 0
-95 -92 -91 0
-95 -92 -91 0
95 -94 -93 0
93 -91 -92 0
-95 -94 -91 0
-95 -92 -94 0
99 -96 -98 0
97 99 -98 0
-100 -98 -97 0
98 96 100 0
-100 -98 96 0
-99 -100 -98 0
97 96 -99 0
-98 -100 -97 0
96 -100 -97 0
-96 -100 -99 0
-98 -99 96 0
98 97 -100 0
105 -101 102 0
104 102 -101 0
104 -105 101 0
-104 103 105 0
-104 103 101 0
104 105 103 0
-102 105 101 0
-105 102 -104 0
-102 104 105 0
102 103 104 0
104 -102 -105 0
102 101 -103 0
-109 -110 -107 0
-106 -110 -108 0
110 107 106 0
-110 109 106 0
106 107 108 0
-107 108 110 0
-109 108 -106 0
106 -110 -107 0
106 -110 -108 0
107 -110 -106 0
108 -110 -109 0
-108 107 -106 0
-112 115 111 0
-111 -115 114 0
114 -115 -113 0
-114 -111 -115 0
111 -114 112 0
-111 -112 -113 0
113 -114 115 0
115 114 111 0
113 -115 112 0
-114 113 115 0
-115 113 -112 0
-114 111 -115 0
120 117 119 0
116 -117 118 0
-119 117 -120 0
-117 116 119 0
117 -120 -116 0
-120 116 119 0
117 -120 118 0
-119 117 116 0
120 119 -118 0
119 -120 -117 0
120 -118 -116 0
120 117 116 0
123 -124 125 0
121 -123 -125 0
121 122 -124 0
123 -122 -121 0
122 -125 -124 0
121 -122 -125 0
-121 -123 124 0
122 -121 125 0
-123 -124 125 0
121 125 -123 0
125 123 124 0
-123 121 122 0
-126 128 -129 0
-130 127 -128 0
129 130 126 0
129 -128 130 0
-128 -127 130 0
-126 -127 130 0
127 -126 128 0
128 129 -126 0
-130 -127 128 0
128 -127 -129 0
-126 -129 -128 0
129 -126 -128 0
-134 -135 132 0
-132 -131 -135 0
-132 133 131 0
-131 -132 134 0
134 -132 -131 0
-131 -135 132 0
131 -132 -135 0
134 -131 135 0
-132 -133 135 0
-133 -135 131 0
-132 -133 134 0
134 132 133 0
136 139 -138 0
-136 139 -138 0
-138 -140 139 0
-138 140 -139 0
138 -139 -136 0
139 -140 -137 0
-137 139 -138 0
139 -140 138 0
137 139 -136 0
-136 139 137 0
-140 136 138 0
140 -137 139 0
-144 -142 141 0
145 -142 -144 0
-145 -141 144 0
144 -142 143 0
-141 -143 -142 0
-142 -141 144 0
-142 144 -145 0
145 144 -143 0
141 -142 144 0
-144 -143 -142 0
143 -141 -144 0
-144 143 -141 0
-147 -148 -149 0
149 147 -146 0
149 -148 147 0
-149 146 -150 0
-149 -150 -147 0
-147 148 150 0
-148 -150 149 0
-148 146 150 0
146 -150 148 0
-146 148 150 0
147 -146 -148 0
148 147 -146 0
-153 -151 152 0
153 155 -151 0
-152 153 -155 0
-155 -151 153 0
155 154 -151 0
-152 -151 -154 0
153 -152 151 0
152 -153 151 0
151 153 -154 0
153 -155 -154 0
153 -155 -152 0
-153 -151 152 0
-158 157 156 0
159 158 160 0
156 160 159 0
-156 -157 158 0
156 159 -160 0
-157 -156 160 0
-157 -156 -160 0
159 156 160 0
-158 -159 156 0
-157 -159 -160 0
157 -159 -160 0
-159 -158 -157 0
-165 162 -163 0
163 164 -162 0
-163 162 -164 0
-165 164 -163 0
-164 162 165 0
165 -161 163 0
163 164 162 0
-164 -162 -163 0
-164 161 165 0
-161 -165 164 0
162 164 165 0
162 -164 -161 0
-166 -167 168 0
168 -169 -167 0
167 -166 169 0
-168 -170 -169 0
-167 -166 170 0
-170 169 -168 0
166 -167 169 0
170 -166 167 0
169 170 -168 0
-167 -168 170 0
168 -166 167 0
170 -167 166 0
171 174 175 0
-173 175 174 0
174 171 175 0
-172 -173 175 0
171 175 173 0
175 171 -172 0
175 171 -174 0
-171 174 173 0
-172 -175 -171 0
175 172 171 0
175 171 -173 0
174 -175 -171 0
-176 180 -179 0
-179 -177 -178 0
-177 -179 180 0
178 -179 176 0
179 177 180 0
178 -176 -180 0
-179 180 176 0
179 177 -178 0
177 -176 178 0
-177 -176 -180 0
180 -179 -177 0
180 177 -176 0
-185 -184 182 0
185 184 182 0
184 -181 -185 0
184 181 185 0
-185 183 184 0
-182 183 -181 0
181 -183 184 0
-185 -182 184 0
-182 184 -183 0
-181 183 182 0
185 181 184 0
-185 -183 181 0
186 -187 188 0
186 190 189 0
188 -187 186 0
187 -190 189 0
-186 189 -187 0
-188 190 -189 0
188 186 -190 0
190 -188 187 0
-190 188 187 0
188 190 189 0
-188 -189 186 0
-190 -187 189 0
-193 -194 195 0
-193 191 -194 0
-194 -191 -195 0
193 191 -195 0
193 -191 -192 0
-195 -194 -193 0
-191 -193 195 0
-191 193 -195 0
193 -191 -195 0
-191 194 195 0
-195 192 191 0
195 191 -194 0
200 -199 196 0
197 196 200 0
-197 200 199 0
-197 196 199 0
197 200 196 0
197 199 196 0
-200 -198 196 0
197 200 199 0
200 196 -197 0
-196 199 -198 0
-196 200 -199 0
-198 200 -199 0
205 -203 -204 0
-205 204 203 0
202 -201 203 0
201 203 205 0
-205 -204 -202 0
201 205 -203 0
-203 201 205 0
-205 -203 -204 0
-204 -205 201 0
-203 -201 205 0
-203 -204 201 0
205 -201 -203 0
-207 206 209 0
-210 -207 208 0
206 207 210 0
209 -210 -207 0
-207 210 -206 0
207 -210 -208 0
-207 208 -210 0
-210 -207 208 0
-210 -207 -209 0
209 -207 208 0
206 -210 209 0
-210 -207 -206 0
-214 211 -212 0
212 -215 -214 0
212 213 215 0
-212 214 -215 0
214 -211 212 0
211 215 -214 0
214 215 211 0
213 214 -215 0
-214 212 -213 0
215 211 213 0
-215 -214 -211 0
-214 -212 213 0
-219 220 -218 0
216 -220 217 0
-217 -220 -218 0
219 218 -217 0
217 -220 -216 0
-218 217 -219 0
-217 -218 -220 0
-218 -220 219 0
-217 -219 -216 0
219 220 -217 0
216 -219 220 0
-216 -218 220 0
-225 -223 -224 0
-223 -222 224 0
224 -223 225 0
223 -221 222 0
224 -225 -222 0
222 -224 221 0
224 -223 -221 0
-221 225 -224 0
-222 -225 223 0
-221 -225 222 0
-222 -224 -221 0
-222 -225 221 0
226 228 227 0
227 -229 -226 0
-230 -228 229 0
228 -227 -226 0
-227 230 -226 0
228 -229 -226 0
-226 228 -230 0
-228 230 -227 0
-230 228 226 0
227 226 230 0
-226 -227 230 0
227 -230 226 0
235 232 231 0
-235 232 -234 0
232 -235 -234 0
234 231 -235 0
235 -233 232 0
-231 -232 -233 0
235 -232 -234 0
-234 232 -233 0
-231 -232 -233 0
-232 -231 235 0
-231 -235 234 0
235 -231 -232 0
-239 -238 236 0
-237 240 -238 0
-240 -237 239 0
-239 -237 -238 0
-236 -238 239 0
239 236 -238 0
236 240 238 0
239 236 238 0
238 237 239 0
236 237 240 0
240 -238 239 0
239 236 -240 0
-245 -244 241 0
-244 -245 -242 0
-244 -241 242 0
-242 244 -241 0
244 -245 243 0
242 245 241 0
241 244 -245 0
-243 -241 244 0
242 -241 -244 0
-245 244 242 0
241 -244 243 0
-243 -242 241 0
-250 -248 -247 0
247 249 -246 0
250 -246 247 0
248 247 -246 0
247 248 -250 0
-250 247 248 0
250 246 -248 0
-247 248 -246 0
-248 -247 -249 0
-250 -249 246 0
248 -247 246 0
-247 -248 246 0
-255 253 -251 0
254 252 -253 0
251 253 255 0
-252 254 253 0
255 -252 -253 0
-252 -251 -253 0
-252 -254 255 0
254 -253 251 0
-251 -252 -254 0
253 -251 -255 0
254 251 -255 0
-255 252 254 0
-257 -259 -258 0
-256 -259 260 0
-259 256 -257 0
-257 -259 258 0
-257 258 260 0
257 258 -259 0
-257 -259 -256 0
-259 257 -260 0
260 -258 -257 0
258 259 -256 0
258 260 -257 0
-258 -257 256 0
262 -265 264 0
264 -263 261 0
262 -264 -265 0
263 -264 -262 0
265 -261 -263 0
265 261 -264 0
261 265 -262 0
-263 -264 -262 0
262 -261 265 0
265 263 -262 0
261 262 -265 0
262 264 265 0
268 270 269 0
269 266 -270 0
-266 -267 270 0
-267 268 270 0
267 -268 -270 0
267 -269 -266 0
-266 267 269 0
270 -267 -268 0
-267 -270 266 0
269 266 -270 0
269 -266 -267 0
270 -267 266 0
-272 274 -275 0
274 272 -275 0
-274 -273 -271 0
-274 -272 271 0
-275 -272 271 0
273 -275 271 0
-274 275 -271 0
271 -274 -273 0
-271 -273 -275 0
272 -273 -275 0
274 273 -272 0
-275 273 271 0
-276 -278 277 0
-277 -278 280 0
-280 -279 -276 0
278 -277 279 0
-278 280 276 0
280 -277 -278 0
280 -277 -278 0
277 -278 -279 0
-280 276 278 0
-280 -279 276 0
-278 277 -276 0
277 276 278 0
284 -281 282 0
-283 285 -282 0
-281 -282 284 0
-284 -282 -283 0
283 285 -284 0
-282 284 281 0
-285 282 281 0
-281 -285 284 0
-285 -284 -282 0
282 -285 -281 0
-281 -283 285 0
-284 -282 281 0
-290 289 287 0
-286 -289 288 0
-290 -286 -288 0
-290 288 -286 0
286 288 -287 0
-288 -290 286 0
286 289 -290 0
-290 286 287 0
-290 -287 288 0
-288 -286 -287 0
288 -290 -287 0
288 -287 -289 0
291 294 -292 0
292 294 293 0
-295 293 291 0
294 -291 292 0
293 -295 -292 0
293 -294 292 0
295 -294 -291 0
-295 292 294 0
-294 292 -291 0
294 -292 -295 0
-292 -291 -293 0
-294 293 -291 0
296 298 297 0
297 -300 -298 0
-298 -297 296 0
298 299 300 0
-296 -299 -298 0
299 -296 -300 0
300 -297 298 0
-299 296 -300 0
-296 -298 -300 0
-300 -298 -299 0
-299 -298 -297 0
299 300 296 0
-301 -302 303 0
-304 -305 -301 0
-305 -303 -304 0
-303 302 305 0
301 -303 -302 0
301 -302 -304 0
304 -303 301 0
302 301 -305 0
305 -302 -301 0
305 -301 -303 0
-303 -304 301 0
-304 -303 302 0
-309 -306 308 0
307 -309 -306 0
307 -309 -306 0
307 310 -308 0
306 310 308 0
-308 -310 307 0
309 307 -310 0
-309 -307 308 0
-308 -310 -306 0
307 306 -309 0
-306 310 -307 0
-308 -307 -306 0
-314 -312 -315 0
314 -311 313 0
312 313 -314 0
-311 -313 -312 0
315 313 311 0
315 314 313 0
-314 311 313 0
315 312 -314 0
-313 -315 -314 0
312 -313 314 0
-314 -313 -311 0
-312 311 314 0
319 -316 -317 0
319 318 -316 0
-317 319 318 0
-316 320 319 0
319 318 317 0
-320 316 319 0
-320 316 -319 0
319 320 316 0
-320 -317 -318 0
-317 -319 -316 0
-319 316 -318 0
-318 316 317 0
-321 -322 323 0
-323 -324 -322 0
-323 322 -325 0
323 -321 322 0
324 322 325 0
321 325 -322 0
-321 325 -323 0
324 -323 -325 0
-325 323 324 0
-324 321 325 0
321 325 324 0
321 -322 323 0
327 329 -326 0
327 328 330 0
-326 -328 329 0
326 330 327 0
329 326 328 0
326 327 -328 0
-327 329 -328 0
-329 -327 -326 0
-329 326 328 0
-330 -329 327 0
329 326 328 0
329 330 326 0
334 -332 333 0
-332 -334 331 0
-334 -331 -332 0
-333 -332 -335 0
-331 333 335 0
-333 -331 -335 0
-332 -331 -334 0
335 332 331 0
333 -331 -332 0
-332 -333 334 0
331 332 334 0
334 -331 333 0
337 336 340 0
338 -336 339 0
-339 -340 -337 0
340 336 339 0
340 -339 338 0
-336 -340 339 0
338 -340 336 0
-340 -337 -338 0
-339 337 338 0
338 -339 -336 0
339 338 336 0
337 -340 -336 0
-341 -342 -343 0
-341 345 343 0
-341 -343 -345 0
-342 343 -341 0
345 342 -341 0
341 -342 344 0
-341 344 -343 0
-344 -342 -345 0
345 342 341 0
341 344 -343 0
343 -341 -344 0
344 -342 -343 0
348 -347 349 0
-350 348 -347 0
348 -347 346 0
-347 350 348 0
346 350 -348 0
347 346 -349 0
346 -350 -349 0
350 347 -349 0
348 349 347 0
-350 347 349 0
-346 350 349 0
348 -349 347 0
351 -354 352 0
352 351 355 0
-354 352 -351 0
351 355 -354 0
-352 -355 354 0
353 -355 -354 0
-353 351 -354 0
351 -355 -353 0
351 353 -355 0
351 355 -354 0
-352 354 355 0
-355 -354 352 0
-358 -356 -359 0
359 357 360 0
359 -358 -360 0
359 356 358 0
357 -359 360 0
-357 358 -359 0
-356 -360 357 0
356 360 357 0
-360 356 359 0
356 -357 360 0
-360 -356 -359 0
-359 -358 -360 0
361 364 -362 0
-364 -361 -363 0
361 362 363 0
362 361 364 0
365 -362 -364 0
362 -365 363 0
-362 -363 361 0
-364 363 361 0
-361 -364 365 0
-362 -363 365 0
362 363 -361 0
364 -365 361 0
367 -369 368 0
-366 367 370 0
-367 -370 368 0
367 370 -366 0
369 366 370 0
-366 -369 367 0
370 369 -367 0
366 -368 -367 0
-368 -370 -366 0
366 368 -369 0
369 -366 367 0
-368 -369 -370 0
1 -6 0
6 -11 0
11 -16 0
16 -21 0
21 -26 0
26 -31 0
31 -36 0
36 -41 0
41 -46 0
46 -51 0
51 -56 0
56 -61 0
61 -66 0
66 -71 0
71 -76 0
76 -81 0
81 -86 0
86 -91 0
91 -96 0
96 -101 0
101 -106 0
106 -111 0
111 -116 0
116 -121 0
121 -126 0
126 -131 0
131 -136 0
136 -141 0
141 -146 0
146 -151 0
151 -156 0
156 -161 0
161 -166 0
166 -171 0
171 -176 0
176 -181 0
181 -186 0
186 -191 0
191 -196 0
196 -201 0
201 -206 0
206 -211 0
211 -216 0
216 -221 0
221 -226 0
226 -231 0
231 -236 0
236 -241 0
241 -246 0
246 -251 0
251 -256 0
256 -261 0
261 -266 0
266 -271 0
271 -276 0
276 -281 0
281 -286 0
286 -291 0
291 -296 0
296 -301 0
301 -306 0
306 -311 0
311 -316 0
316 -321 0
321 -326 0
326 -331 0
331 -336 0
336 -341 0
341 -346 0
346 -351 0
351 -356 0
356 -361 0
361 -366 0
