p cnf 385 1000
1 -4 -5 0
-2 -1 3 0
-4 1 -5 0
-1 2 5 0
-1 5 2 0
-1 -5 -4 0
-5 -3 -4 0
1 2 3 0
1 -5 -2 0
3 -2 -4 0
3 -5 -1 0
3 -5 -2 0
-6 -9 -8 0
7 -8 10 0
-6 9 -10 0
-9 7 6 0
8 10 -6 0
7 9 8 0
-10 -7 8 0
8 7 6 0
-10 8 -6 0
6 -10 8 0
-8 10 -6 0
-8 -9 10 0
-13 -14 15 0
-14 -11 12 0
-12 -14 -15 0
-12 11 14 0
12 11 15 0
-15 14 -13 0
-11 14 -15 0
-15 11 -14 0
-12 -15 -14 0
15 14 12 0
-11 -14 15 0
-11 13 12 0
-19 17 16 0
-17 -19 -16 0
-19 16 18 0
17 20 19 0
-17 -18 16 0
-18 -19 16 0
-16 18 17 0
-16 17 -20 0
-19 -20 -17 0
20 -18 -16 0
-19 -18 -17 0
-17 20 19 0
23 21 24 0
21 -23 25 0
24 23 22 0
22 -24 25 0
-21 24 -23 0
24 23 22 0
21 -25 23 0
23 -22 21 0
24 -23 -21 0
-21 22 23 0
-22 25 -23 0
23 -24 -25 0
-27 26 -29 0
-27 -29 -30 0
-30 -26 27 0
28 -26 30 0
29 -26 28 0
27 -30 26 0
-29 26 30 0
-27 -29 -28 0
28 29 30 0
-28 -29 30 0
27 -28 29 0
-29 30 26 0
33 31 34 0
32 35 -31 0
-32 -33 35 0
35 -31 32 0
31 35 -34 0
-35 -33 -31 0
-34 31 33 0
33 34 -32 0
34 -35 33 0
32 33 -35 0
-35 31 -34 0
35 31 -32 0
39 -38 36 0
-39 -37 36 0
38 40 -39 0
37 -36 -38 0
37 40 36 0
-40 39 -37 0
-40 -38 -36 0
38 -39 -40 0
-37 -40 39 0
38 36 -37 0
-38 -36 -40 0
-36 39 37 0
-42 43 41 0
-44 41 -42 0
-44 -45 -41 0
44 45 -42 0
-44 42 -41 0
-44 45 42 0
42 43 44 0
42 -41 43 0
45 43 -44 0
-42 -43 -44 0
45 -44 -43 0
-42 -41 -45 0
-47 46 -48 0
-48 -49 46 0
49 -50 47 0
-47 -46 -48 0
-48 -50 -49 0
50 47 -46 0
-48 46 -49 0
48 50 -49 0
-46 -49 50 0
46 50 48 0
-48 -50 47 0
-49 -48 -50 0
55 -52 53 0
-51 -54 -55 0
-51 52 -55 0
52 -51 -55 0
-55 51 52 0
55 51 -53 0
-52 54 55 0
55 -54 53 0
-54 55 -53 0
-51 -55 -53 0
54 -52 -55 0
-53 -52 51 0
58 -60 59 0
57 -59 -58 0
-56 -60 -57 0
-58 57 -56 0
59 -57 56 0
57 -58 60 0
56 59 60 0
-56 -60 58 0
-57 -60 59 0
60 -57 -56 0
-56 59 -58 0
56 -59 58 0
61 64 62 0
62 -65 -63 0
64 -65 61 0
64 -62 63 0
-62 64 65 0
65 64 63 0
-64 -65 63 0
-65 61 64 0
-65 -61 62 0
65 -63 61 0
-63 -64 62 0
65 -62 -63 0
-66 67 -70 0
70 66 -67 0
69 -67 66 0
70 67 -69 0
-68 -67 -69 0
-69 -70 66 0
-68 -66 67 0
-67 69 70 0
-70 -67 68 0
-66 -67 -68 0
-66 -68 -69 0
68 -66 -70 0
71 -74 73 0
73 -75 -72 0
71 75 -73 0
-72 71 -73 0
-71 -74 72 0
75 -71 74 0
75 71 -73 0
73 74 -71 0
-72 74 -75 0
71 74 75 0
71 -73 74 0
73 -71 72 0
-80 -78 -76 0
77 -76 79 0
-79 -76 -80 0
-80 -78 -76 0
77 80 76 0
-77 -79 -76 0
77 80 78 0
-76 80 -77 0
79 78 -77 0
-76 77 -80 0
79 78 -80 0
76 77 80 0
83 -84 -82 0
84 -81 85 0
83 85 -81 0
84 -85 82 0
-81 -82 85 0
-85 83 81 0
-84 -82 -81 0
-81 85 -84 0
83 85 84 0
-84 82 -85 0
84 82 81 0
-85 81 82 0
-88 90 -87 0
87 -89 90 0
-87 90 89 0
86 87 90 0
86 -89 -90 0
-90 -87 -89 0
-86 -90 -88 0
88 -86 89 0
88 -89 -90 0
-87 86 -89 0
88 90 87 0
86 88 -87 0
-95 -93 94 0
91 95 94 0
93 -91 -95 0
-94 -92 91 0
92 91 94 0
-94 93 91 0
-91 -94 93 0
92 -91 -93 0
95 -91 93 0
-93 -91 92 0
91 -95 93 0
-93 -95 -91 0
-96 -98 99 0
100 -99 -96 0
99 -98 -100 0
-96 97 100 0
-99 97 -100 0
99 98 -96 0
99 100 97 0
-100 99 96 0
98 -97 100 0
96 97 99 0
-100 98 -96 0
99 -100 -97 0
-103 101 104 0
104 -103 101 0
102 101 -105 0
105 103 101 0
-103 -104 101 0
-103 104 -105 0
-104 -102 103 0
104 -103 105 0
102 105 -101 0
-101 -104 -105 0
-104 101 105 0
105 104 -102 0
106 109 108 0
106 -108 -110 0
108 107 -106 0
109 -106 108 0
-109 106 -110 0
106 107 -108 0
109 107 106 0
-106 107 109 0
-109 -107 -108 0
-108 -106 -109 0
109 110 -106 0
109 110 106 0
111 114 -113 0
111 115 112 0
-114 -113 111 0
-111 -112 -113 0
111 -112 114 0
111 115 -112 0
-111 113 -112 0
115 -111 -114 0
111 112 -114 0
115 111 114 0
115 112 113 0
112 115 -111 0
117 -119 -116 0
-117 -118 -119 0
-120 -117 -118 0
-120 -117 116 0
118 119 -116 0
-120 119 -117 0
-119 116 117 0
120 -118 -119 0
-118 120 116 0
-117 -119 -116 0
-117 116 -119 0
119 -116 120 0
125 -124 122 0
-125 123 121 0
121 -124 -123 0
-122 121 -124 0
-125 -124 121 0
-123 -125 -124 0
-123 -121 124 0
121 -122 125 0
-121 124 123 0
-125 121 122 0
-123 124 -122 0
-121 124 125 0
130 -126 128 0
-127 126 -129 0
-128 126 130 0
126 -129 128 0
-126 -130 129 0
130 -127 -128 0
128 -130 -129 0
129 -126 -130 0
-128 -127 -126 0
-130 -129 128 0
129 127 128 0
126 129 -128 0
134 132 -133 0
133 -134 132 0
-131 135 -134 0
131 135 134 0
132 -133 -135 0
-135 134 132 0
-131 -135 133 0
-133 135 131 0
-132 -131 -135 0
-132 133 -135 0
-133 -131 -135 0
-135 -132 -131 0
-140 138 137 0
-138 137 140 0
-138 -140 136 0
139 136 140 0
137 139 138 0
138 139 140 0
-138 -139 -137 0
-136 -137 140 0
140 137 -139 0
-136 140 137 0
-139 137 136 0
-139 -140 138 0
-144 141 145 0
143 -142 -144 0
-144 -141 -143 0
144 -141 143 0
-145 -144 -143 0
143 -145 -141 0
144 -142 -143 0
142 141 -145 0
145 -141 -144 0
144 145 -142 0
142 141 -145 0
-141 -142 -143 0
-147 148 -149 0
-150 -147 -149 0
149 150 148 0
-146 147 148 0
-146 -149 -147 0
-147 150 148 0
-149 -147 -148 0
146 149 147 0
148 149 -150 0
-146 -147 148 0
-148 147 146 0
150 -147 146 0
-153 152 155 0
154 -153 152 0
-154 -152 -151 0
153 152 151 0
-154 152 151 0
-155 151 -154 0
-154 151 -155 0
152 -154 -153 0
-152 153 -155 0
155 151 -152 0
-152 -151 155 0
-154 -152 -151 0
-157 -156 -160 0
-156 -160 -158 0
-159 -156 -157 0
158 156 -157 0
-156 -160 159 0
-159 160 -157 0
160 -159 -156 0
158 -160 156 0
-157 159 158 0
159 -158 -157 0
156 157 158 0
159 158 156 0
-162 164 -165 0
-164 162 -165 0
-162 -165 -164 0
-163 161 -165 0
-162 163 164 0
-165 -162 -161 0
-165 163 164 0
-162 165 161 0
165 161 162 0
163 -161 -162 0
-164 -161 -165 0
163 164 -162 0
166 169 -167 0
-170 167 168 0
-167 -170 166 0
-169 167 168 0
-167 170 169 0
-167 166 -169 0
170 -169 168 0
170 167 168 0
-167 -170 169 0
-166 -169 170 0
-169 -170 167 0
-170 -166 169 0
172 173 175 0
173 -174 -171 0
-171 172 173 0
-171 -172 174 0
175 173 -171 0
172 -173 175 0
173 175 -171 0
-175 171 -173 0
172 171 -173 0
-171 174 173 0
-174 -173 172 0
173 175 -171 0
-177 -180 -176 0
-176 -180 179 0
178 -179 176 0
-178 -177 -179 0
177 -180 179 0
178 -176 -180 0
-180 176 178 0
-176 177 179 0
180 177 176 0
178 179 180 0
-177 180 176 0
180 176 178 0
-183 -185 184 0
-184 -185 182 0
184 -181 182 0
183 184 181 0
-182 185 183 0
-184 -185 -183 0
183 181 185 0
-184 185 -183 0
181 -183 185 0
181 -183 -182 0
-182 185 183 0
-184 181 -182 0
190 -186 -189 0
-189 188 -186 0
-190 -186 188 0
-189 -186 -190 0
189 186 187 0
187 188 -189 0
186 -187 189 0
-188 187 190 0
-186 189 190 0
189 -187 186 0
188 -189 -186 0
-186 -189 190 0
193 192 -195 0
192 -191 193 0
-193 -192 191 0
194 -195 191 0
194 192 -191 0
195 -191 194 0
-195 192 194 0
194 -193 -195 0
194 195 -193 0
191 -192 195 0
-194 -191 193 0
193 191 192 0
-198 199 200 0
198 -199 197 0
-198 -200 -197 0
-196 -198 199 0
198 196 -197 0
-196 -199 197 0
198 197 196 0
200 -198 197 0
200 -197 196 0
-196 -199 200 0
200 199 -196 0
197 -200 -198 0
201 203 -202 0
-202 -205 -201 0
-205 -204 -201 0
201 202 -205 0
-203 -201 205 0
204 -203 201 0
-201 203 204 0
-204 -202 201 0
-202 -204 -205 0
-204 -205 202 0
202 -204 -203 0
-204 -203 -201 0
-209 206 207 0
-210 206 207 0
209 -208 207 0
206 207 -209 0
-209 207 206 0
-209 206 208 0
-206 -209 -207 0
208 206 209 0
-208 -206 -210 0
207 -209 206 0
209 210 -207 0
206 210 207 0
-212 213 215 0
215 -213 214 0
-215 -213 211 0
-215 -213 214 0
-211 212 213 0
-214 212 211 0
211 -213 -214 0
214 215 -213 0
-211 -215 -212 0
-211 -213 215 0
-211 -215 214 0
212 -214 -215 0
-218 219 -217 0
217 220 -219 0
219 218 -217 0
220 216 -219 0
216 218 217 0
-218 219 -217 0
218 219 -216 0
-220 217 -219 0
216 -219 -218 0
217 -218 -216 0
-216 -218 -217 0
-218 -220 217 0
221 223 -225 0
221 224 -222 0
-222 -225 -224 0
-224 225 -222 0
-221 225 -222 0
222 221 -224 0
-223 -222 -225 0
223 225 -221 0
223 -222 -225 0
-223 -221 -225 0
223 224 -221 0
-223 225 -224 0
-229 -226 230 0
229 226 -230 0
-230 228 227 0
-227 -229 -230 0
226 228 -227 0
228 230 -227 0
228 -229 227 0
-227 -228 -226 0
-227 228 -226 0
-227 229 -226 0
229 -228 230 0
-230 -226 229 0
-232 235 -233 0
-231 232 -234 0
-235 -234 -231 0
-233 235 234 0
-234 -233 -231 0
-233 -234 -232 0
235 232 -231 0
-233 -231 -235 0
234 235 232 0
-231 -235 233 0
-234 231 -232 0
-231 -232 233 0
239 238 -240 0
240 -237 238 0
237 -238 236 0
237 240 -236 0
-239 237 -236 0
239 -237 236 0
-237 239 -236 0
240 238 236 0
237 -240 -239 0
-236 239 240 0
-240 236 -237 0
-237 -236 240 0
243 244 245 0
-243 -245 -244 0
242 243 241 0
-243 242 -244 0
-241 -244 -242 0
241 -244 245 0
242 -241 -243 0
-243 -242 -245 0
241 244 243 0
-241 -242 244 0
242 244 243 0
241 -245 243 0
-247 -249 -248 0
-249 247 -246 0
250 -247 248 0
248 -249 250 0
249 247 250 0
250 -246 -248 0
-248 -247 250 0
-249 -246 248 0
-250 -248 246 0
-248 246 -247 0
248 -246 250 0
-248 247 250 0
-255 251 -253 0
-251 -253 -255 0
253 252 -251 0
-251 254 255 0
255 -253 254 0
-252 254 253 0
-254 -253 251 0
253 254 255 0
255 252 -254 0
-251 -253 -254 0
-253 255 254 0
252 254 -251 0
-259 258 -257 0
-260 -257 -258 0
-260 257 -256 0
256 259 258 0
-258 259 -257 0
-260 -257 259 0
-257 -259 -258 0
256 -260 -258 0
-258 260 259 0
-256 -257 260 0
256 260 258 0
-257 260 -258 0
263 -264 262 0
264 265 -263 0
-265 264 -263 0
-265 264 -262 0
-265 -261 -262 0
-264 263 -265 0
262 -263 -264 0
-262 -263 -264 0
-262 -263 261 0
-261 -265 263 0
265 -261 263 0
-261 -264 -262 0
-266 -269 -268 0
266 270 -269 0
-266 269 -268 0
-268 -267 269 0
-268 -270 -266 0
-270 267 266 0
267 266 268 0
-270 -267 266 0
267 266 268 0
266 -270 -267 0
269 -266 268 0
270 -267 268 0
-273 271 274 0
271 -275 272 0
-272 -274 -271 0
275 273 -271 0
275 -274 -273 0
273 275 -274 0
272 -273 275 0
271 272 274 0
275 -271 -274 0
-273 271 -272 0
275 -274 -273 0
271 -273 -275 0
276 279 278 0
277 -280 276 0
279 -278 -276 0
276 279 -278 0
277 280 -279 0
-278 276 277 0
277 -278 279 0
-278 276 277 0
-280 -277 278 0
276 280 -278 0
280 -276 -279 0
280 -279 -276 0
281 -284 283 0
285 -283 -282 0
-283 285 -284 0
-282 285 -281 0
-284 -285 -282 0
-284 281 -285 0
-285 -281 -282 0
-282 284 -285 0
-283 285 281 0
-282 285 281 0
-281 -283 -285 0
285 283 284 0
289 -290 287 0
287 -289 -290 0
290 -286 287 0
-288 286 289 0
-287 -286 289 0
289 -288 286 0
287 290 -289 0
-289 286 290 0
286 288 -290 0
287 -290 288 0
287 -286 290 0
289 -288 287 0
294 -295 -293 0
-292 -295 -294 0
292 -295 293 0
291 293 -292 0
294 -293 -292 0
-295 -293 291 0
293 -292 291 0
-294 295 -293 0
-294 293 -295 0
295 -294 -291 0
293 -292 -294 0
291 -292 293 0
300 -298 299 0
-300 299 -298 0
-300 299 -296 0
298 296 -300 0
298 299 296 0
298 300 299 0
-296 -297 -298 0
-298 -296 299 0
299 300 298 0
-297 298 -296 0
-299 -298 -297 0
296 299 300 0
-303 -305 304 0
303 301 302 0
305 -303 -301 0
305 303 301 0
302 304 305 0
-304 301 -302 0
304 302 305 0
-302 -305 -301 0
-302 -304 -305 0
302 303 304 0
-302 -305 -301 0
-304 305 303 0
-307 -308 -306 0
309 308 310 0
-309 -308 310 0
-307 306 310 0
-310 309 -307 0
307 309 306 0
-309 -310 -307 0
308 -309 -306 0
308 -310 -309 0
-309 308 -310 0
-307 -309 -306 0
-307 -309 308 0
313 314 -315 0
311 313 314 0
315 313 312 0
-315 -314 312 0
313 315 -312 0
-314 -312 313 0
311 -315 312 0
314 311 -313 0
315 312 311 0
315 -312 314 0
313 311 314 0
312 311 -313 0
320 -317 -319 0
319 320 -317 0
-318 -317 -319 0
-319 -318 320 0
-320 -316 318 0
-320 -316 317 0
-316 -320 318 0
320 -316 317 0
-317 320 316 0
320 316 317 0
319 317 318 0
320 -318 -319 0
-324 322 -323 0
324 325 -321 0
-323 -321 324 0
324 -322 -325 0
322 -324 -321 0
324 -322 -323 0
321 -325 -323 0
-322 -321 -323 0
323 324 322 0
323 -325 -321 0
322 325 -324 0
-325 323 324 0
329 328 327 0
328 326 327 0
-330 328 329 0
-327 -330 -326 0
-328 326 -330 0
330 -329 -326 0
-329 -328 327 0
329 326 327 0
-329 -330 -326 0
326 -329 330 0
-329 330 328 0
-328 330 -326 0
334 332 -333 0
-334 -332 333 0
-334 -332 -333 0
-333 331 335 0
331 -333 335 0
332 -335 334 0
335 334 -333 0
335 331 -333 0
-334 335 333 0
335 -334 331 0
-335 -331 334 0
333 335 332 0
-338 -340 337 0
-337 339 340 0
337 336 -338 0
337 -336 340 0
-337 -340 336 0
-339 -338 337 0
336 -337 -340 0
339 -336 -338 0
338 340 337 0
-340 338 -337 0
340 -339 -338 0
-338 340 339 0
341 343 -345 0
-345 343 -341 0
-342 -343 -344 0
-345 341 343 0
341 -345 -342 0
343 -341 -342 0
344 345 -343 0
345 -344 -343 0
-342 -343 -341 0
345 341 343 0
-342 344 -345 0
-343 341 -345 0
346 -349 -350 0
346 350 -349 0
348 -349 -347 0
348 346 -350 0
-347 -350 -348 0
347 -350 346 0
346 350 -347 0
348 349 -346 0
-348 -347 350 0
-346 -349 -348 0
-346 -347 348 0
-350 -349 -348 0
352 -355 354 0
353 354 -352 0
-354 -352 -355 0
353 355 -351 0
-352 -351 -353 0
-351 353 -352 0
-353 -354 352 0
-353 -354 351 0
-354 355 -351 0
-351 -354 352 0
-354 -353 352 0
-353 -352 -351 0
-357 359 356 0
357 359 -360 0
360 357 359 0
-356 -359 -357 0
-357 359 -358 0
-357 356 -358 0
360 -357 359 0
-360 -356 357 0
357 360 356 0
-358 357 360 0
-359 358 360 0
359 358 -357 0
363 -362 -364 0
-365 -362 363 0
363 -362 361 0
-362 -364 363 0
362 365 364 0
365 361 -363 0
364 -365 -362 0
362 -363 -364 0
364 -363 -361 0
365 -364 -363 0
-362 361 365 0
-363 -362 -364 0
-367 -366 368 0
367 368 -370 0
-368 -370 -369 0
369 -366 -370 0
367 -368 -369 0
-367 -369 370 0
366 -370 -369 0
-368 -366 -367 0
-368 367 370 0
-369 -368 -366 0
-367 -370 368 0
366 370 -368 0
373 -372 -375 0
-371 -372 374 0
-371 -372 374 0
-372 374 373 0
-373 372 374 0
371 373 375 0
373 -372 371 0
-373 -374 -371 0
373 -372 375 0
371 -374 -373 0
-371 -372 -373 0
-373 375 -371 0
-380 379 377 0
-377 376 -379 0
-377 378 380 0
-376 380 -379 0
-379 377 378 0
-376 -380 379 0
-377 380 -376 0
-376 -377 378 0
-379 -378 -376 0
377 379 380 0
-377 376 379 0
377 -380 379 0
-381 383 -382 0
383 381 -385 0
-384 385 -383 0
383 385 381 0
381 -382 383 0
384 -381 -382 0
-385 -382 383 0
381 -382 -385 0
381 -383 -382 0
382 384 -383 0
-381 -382 -384 0
-381 383 384 0
1 -6 0
6 -11 0
11 -16 0
16 -21 0
21 -26 0
26 -31 0
31 -36 0
36 -41 0
41 -46 0
46 -51 0
51 -56 0
56 -61 0
61 -66 0
66 -71 0
71 -76 0
76 -81 0
81 -86 0
86 -91 0
91 -96 0
96 -101 0
101 -106 0
106 -111 0
111 -116 0
116 -121 0
121 -126 0
126 -131 0
131 -136 0
136 -141 0
141 -146 0
146 -151 0
151 -156 0
156 -161 0
161 -166 0
166 -171 0
171 -176 0
176 -181 0
181 -186 0
186 -191 0
191 -196 0
196 -201 0
201 -206 0
206 -211 0
211 -216 0
216 -221 0
221 -226 0
226 -231 0
231 -236 0
236 -241 0
241 -246 0
246 -251 0
251 -256 0
256 -261 0
261 -266 0
266 -271 0
271 -276 0
276 -281 0
281 -286 0
286 -291 0
291 -296 0
296 -301 0
301 -306 0
306 -311 0
311 -316 0
316 -321 0
321 -326 0
326 -331 0
331 -336 0
336 -341 0
341 -346 0
346 -351 0
351 -356 0
356 -361 0
361 -366 0
366 -371 0
371 -376 0
376 -381 0
