p cnf 190 809
167 1 -90 0
-81 -114 -73 0
-10 -16 -181 0
-116 -60 157 0
-38 121 142 0
-150 -5 -189 0
170 38 31 0
144 44 38 0
-2 89 -120 0
-160 -73 78 0
-95 -23 163 0
-6 -42 -130 0
50 53 -49 0
120 167 78 0
122 39 126 0
98 91 -140 0
37 152 122 0
-102 -168 -64 0
70 46 61 0
71 131 88 0
114 156 85 0
183 -170 -39 0
135 170 109 0
90 -167 -188 0
-93 174 -124 0
-77 28 31 0
-163 129 181 0
11 88 -95 0
53 26 -61 0
-140 91 170 0
-35 -159 -82 0
148 -95 -13 0
56 18 2 0
-110 -157 127 0
83 -27 -62 0
98 -109 -27 0
63 31 -89 0
180 89 19 0
135 -45 37 0
19 -4 51 0
79 -28 -35 0
59 171 69 0
76 -87 -22 0
113 -178 -3 0
-150 -105 -37 0
-187 87 137 0
-1 -183 -119 0
68 -165 -118 0
-16 139 -153 0
50 -179 -94 0
-66 -142 -167 0
-173 -12 -9 0
1 -75 -34 0
-175 102 22 0
188 -111 -29 0
-170 -72 57 0
-175 57 86 0
-66 158 -99 0
-120 112 78 0
17 134 -25 0
-138 -52 -23 0
149 -147 22 0
-66 125 -143 0
-128 -154 -32 0
145 -68 97 0
176 147 -66 0
146 -164 13 0
-56 130 187 0
-152 -49 22 0
97 -148 126 0
-35 179 164 0
182 157 41 0
-138 -85 89 0
14 -143 85 0
-189 3 -183 0
130 117 -78 0
-61 126 -81 0
-124 51 -134 0
-12 130 -96 0
128 96 -5 0
139 -106 69 0
-83 -108 -55 0
-175 69 -82 0
132 -137 176 0
-88 -105 -22 0
-50 53 51 0
-94 -143 16 0
-81 14 126 0
-31 -137 -47 0
15 -177 -153 0
18 -46 -168 0
-62 12 -132 0
60 -135 124 0
80 -74 90 0
14 -76 -72 0
-21 -106 187 0
102 32 -87 0
-121 26 -114 0
86 -168 62 0
142 101 48 0
-164 97 -127 0
122 -37 -187 0
100 -64 -91 0
22 49 -80 0
-115 158 -52 0
29 164 -73 0
-73 131 -87 0
118 -135 48 0
-91 110 -176 0
58 71 80 0
-190 -10 179 0
-173 167 -148 0
-78 138 119 0
-86 158 22 0
-179 -151 68 0
-31 124 -182 0
-128 -134 92 0
92 145 102 0
6 -19 116 0
-72 -142 -175 0
146 50 -34 0
-14 -140 156 0
153 177 56 0
-154 -36 74 0
-56 -156 -167 0
-116 -180 113 0
-156 143 -145 0
-95 -179 -106 0
106 -131 -170 0
-52 -125 84 0
131 -79 108 0
-15 36 -114 0
-123 -106 137 0
76 116 15 0
-59 37 -145 0
-52 177 165 0
-111 89 -15 0
-61 -174 34 0
189 -72 -107 0
186 -89 -137 0
-85 187 131 0
-113 -175 133 0
75 41 -140 0
21 -79 -17 0
-100 70 -4 0
-114 -186 78 0
157 54 91 0
-105 152 100 0
63 -118 -173 0
144 98 -76 0
-180 -99 83 0
73 -159 129 0
75 -49 79 0
-104 82 179 0
-111 -108 -190 0
-38 123 -36 0
138 -73 26 0
65 52 117 0
-5 98 -103 0
-188 118 -182 0
139 -101 35 0
-8 176 128 0
-138 87 144 0
-19 -172 -94 0
123 -76 45 0
-40 121 -115 0
110 85 3 0
-184 -67 45 0
-122 -47 26 0
104 -93 -60 0
-186 -78 93 0
-115 145 -90 0
189 72 87 0
158 -165 -75 0
86 -97 -99 0
-134 -18 -129 0
37 -156 -142 0
-101 122 -22 0
-186 119 -6 0
58 134 184 0
180 51 -1 0
80 -11 -99 0
143 122 -74 0
9 115 79 0
54 -173 -83 0
-156 176 -84 0
-153 -123 33 0
6 -58 91 0
-60 -61 -109 0
-49 133 63 0
-89 77 85 0
-52 19 186 0
69 138 -179 0
-96 168 144 0
155 14 -105 0
-184 77 -81 0
37 31 -3 0
90 88 147 0
7 85 161 0
-8 170 167 0
63 65 -77 0
66 -97 30 0
-146 113 -101 0
90 -157 53 0
149 14 22 0
137 -8 104 0
-130 12 69 0
-148 -22 -112 0
-80 -174 29 0
-39 116 151 0
-167 188 17 0
169 -97 100 0
122 -185 -61 0
160 94 131 0
110 -102 83 0
-153 14 11 0
20 -12 26 0
134 16 -22 0
-37 -58 -100 0
3 -33 160 0
-140 64 -79 0
41 -134 93 0
-101 -113 -104 0
-21 30 170 0
109 79 -85 0
164 -124 8 0
-19 47 -22 0
-36 -148 136 0
94 -183 109 0
-133 -29 -160 0
-146 -88 115 0
75 180 179 0
-170 188 -186 0
67 -188 -66 0
-83 57 145 0
65 5 13 0
-68 -58 95 0
-126 101 137 0
-34 -152 40 0
-175 116 78 0
-44 19 168 0
83 -50 189 0
14 169 88 0
-68 -129 94 0
-104 -17 117 0
99 -59 -41 0
-167 -10 -174 0
-32 -11 27 0
153 96 98 0
127 134 103 0
-126 -91 155 0
76 38 181 0
-188 -23 57 0
94 21 9 0
-55 -52 114 0
-175 -176 116 0
-109 137 2 0
29 107 170 0
29 -53 21 0
100 -28 152 0
68 -34 190 0
15 -104 47 0
74 -49 -164 0
-170 106 -27 0
-1 -54 -18 0
126 -66 11 0
-21 63 67 0
44 79 88 0
137 70 34 0
-146 157 112 0
61 -21 20 0
-177 89 40 0
-144 -4 -113 0
-56 182 89 0
-40 171 -50 0
161 -57 33 0
-169 -185 -53 0
-54 116 168 0
-160 -127 -106 0
58 -26 -78 0
-136 178 -187 0
170 77 -107 0
13 98 -82 0
-134 110 -145 0
-65 32 -57 0
54 180 -99 0
-190 -176 -122 0
115 82 -151 0
47 -25 21 0
176 -80 125 0
115 -79 167 0
166 -21 -39 0
187 -40 184 0
84 113 -184 0
-136 15 -158 0
5 -95 69 0
-168 123 147 0
-110 -72 -16 0
-94 -138 -98 0
-7 -103 142 0
-16 144 -93 0
-86 61 31 0
-102 -106 20 0
122 -124 -99 0
-149 -154 -45 0
-86 -108 11 0
43 64 172 0
-7 132 76 0
160 -42 179 0
-181 28 113 0
-55 113 -33 0
-22 -170 59 0
-162 -58 147 0
128 169 -55 0
-150 -27 46 0
4 -15 118 0
88 131 -188 0
-182 112 -139 0
-30 119 124 0
-186 -126 26 0
74 -22 64 0
66 2 106 0
91 148 -17 0
82 -102 -104 0
-71 -55 -63 0
27 71 -74 0
131 -76 6 0
44 125 -54 0
9 21 126 0
169 -147 -114 0
127 -58 -99 0
-86 -89 -95 0
32 -166 -65 0
70 87 9 0
-98 -27 32 0
-40 -74 147 0
-174 97 -163 0
-126 -178 -168 0
-173 -21 9 0
174 128 -127 0
-174 70 -152 0
119 -141 21 0
159 93 13 0
172 73 130 0
48 -92 34 0
103 -114 -116 0
-189 -108 3 0
64 -125 -65 0
110 189 -59 0
63 186 -59 0
37 -107 -148 0
-6 42 54 0
-145 117 -90 0
1 70 -13 0
-154 -44 190 0
1 -20 -37 0
156 2 -20 0
-72 51 -66 0
-77 66 190 0
-23 -187 -179 0
185 -31 -132 0
-2 71 -11 0
-13 138 -136 0
-69 -17 118 0
125 -52 -134 0
-172 -167 139 0
116 75 -145 0
96 -177 -42 0
63 177 136 0
-5 83 67 0
31 168 144 0
76 29 -132 0
-17 45 8 0
40 112 110 0
-107 -14 -66 0
-74 -154 133 0
-187 -108 -167 0
43 16 -138 0
-27 144 -151 0
-101 -170 71 0
179 -148 106 0
177 173 -36 0
-24 -114 -130 0
115 -161 99 0
-45 167 -119 0
-53 69 -177 0
-147 -149 -116 0
120 -118 -172 0
-53 115 141 0
-54 -21 104 0
54 -144 -72 0
40 -152 94 0
76 29 -62 0
-15 100 -161 0
-123 3 -12 0
57 19 68 0
-179 -75 -150 0
153 21 129 0
50 -54 -84 0
-91 185 129 0
-125 95 -108 0
-63 -138 180 0
130 78 -143 0
123 31 44 0
-61 80 63 0
137 -110 77 0
60 63 13 0
177 160 17 0
105 -6 -8 0
132 -179 146 0
120 26 -145 0
65 -33 108 0
-114 21 158 0
35 144 -65 0
114 131 -169 0
-33 -112 -95 0
-11 47 112 0
-171 -180 116 0
187 181 9 0
-124 -151 162 0
164 -85 173 0
-185 6 107 0
121 -16 124 0
143 -178 -115 0
-174 51 146 0
162 95 10 0
119 -153 -174 0
-79 1 77 0
-148 70 -80 0
142 -53 167 0
-64 127 -140 0
-134 -184 11 0
-180 90 -158 0
-1 2 23 0
-8 108 -19 0
-164 153 152 0
85 -129 80 0
19 15 13 0
-144 -4 7 0
130 -69 171 0
-44 -158 33 0
3 -179 -64 0
-120 104 -157 0
44 38 -158 0
175 -6 114 0
-18 -96 67 0
-82 31 -21 0
-84 108 10 0
-61 94 136 0
-184 173 -94 0
93 -170 31 0
-174 10 107 0
59 -27 23 0
-144 149 78 0
-29 -55 -67 0
-83 109 -117 0
148 58 -16 0
32 -13 132 0
-93 107 -170 0
-108 -171 -152 0
-162 96 20 0
22 -116 -162 0
76 -81 11 0
15 140 8 0
70 -133 17 0
124 47 133 0
154 120 112 0
-59 -26 168 0
-6 -176 37 0
103 105 25 0
84 61 -160 0
-63 138 147 0
178 51 -68 0
86 -12 -115 0
10 167 -179 0
-142 25 -68 0
102 108 -154 0
55 63 -2 0
-151 -115 -174 0
152 -118 131 0
-1 -145 -17 0
180 89 -80 0
-136 -11 117 0
-23 -27 162 0
-53 -21 132 0
-68 164 67 0
-84 -51 -158 0
-107 -131 168 0
60 -44 -174 0
-49 27 96 0
-178 184 67 0
-51 -147 -136 0
137 -25 75 0
36 46 50 0
29 -92 107 0
61 21 22 0
-162 -53 -27 0
118 -159 -135 0
-42 -100 -96 0
-83 -158 165 0
-55 89 -151 0
-124 27 118 0
-180 -161 124 0
154 150 -35 0
-178 -89 -149 0
-28 -172 -173 0
-45 -35 -189 0
-61 -149 142 0
-3 1 67 0
-144 -11 -132 0
-148 -145 184 0
112 -99 58 0
11 -153 26 0
-127 98 -181 0
34 -152 35 0
-137 -186 153 0
81 184 -150 0
2 -39 13 0
114 8 -184 0
-99 165 101 0
182 -94 185 0
8 173 25 0
-173 172 -63 0
54 -92 98 0
-44 -49 102 0
131 -101 -85 0
18 -129 -34 0
-92 107 177 0
-73 -160 -122 0
28 -187 -171 0
122 -103 -31 0
-54 -112 143 0
-113 -150 70 0
-4 -94 53 0
27 -138 174 0
-18 49 37 0
62 -70 80 0
-5 -188 -53 0
47 130 -137 0
141 -121 -189 0
-52 -118 -91 0
125 137 -113 0
63 -124 -60 0
-169 -145 94 0
-60 97 -105 0
124 -173 -131 0
20 13 175 0
186 -37 -142 0
170 -55 -174 0
53 -176 -172 0
-116 65 -126 0
63 189 12 0
-179 -175 12 0
-143 -76 -54 0
-17 70 129 0
-117 165 78 0
49 -116 91 0
-177 22 36 0
-74 -125 -181 0
-41 -45 -136 0
-71 -96 -50 0
119 182 22 0
139 24 -38 0
-160 165 171 0
-162 144 41 0
58 -10 92 0
-151 -117 43 0
-36 63 178 0
130 188 -157 0
141 -102 137 0
30 76 179 0
-65 -37 141 0
-114 -187 -183 0
74 -28 189 0
1 -58 -169 0
-28 16 39 0
-138 -161 -73 0
6 183 -135 0
126 122 90 0
132 -87 89 0
114 13 184 0
143 66 84 0
63 160 -116 0
124 114 -33 0
-94 -18 -30 0
90 -97 9 0
-92 130 96 0
55 119 52 0
39 72 -105 0
-170 -45 129 0
26 176 -88 0
-141 -63 -167 0
39 -12 8 0
-157 12 -127 0
-64 23 -124 0
158 -17 27 0
42 44 91 0
-137 157 -150 0
9 56 -145 0
-64 53 4 0
-62 -23 -17 0
31 87 -112 0
72 -183 -79 0
105 -182 41 0
52 62 -120 0
15 166 35 0
82 163 76 0
96 187 154 0
-27 -87 -127 0
140 -11 -122 0
106 -107 36 0
-80 9 17 0
155 87 -117 0
16 -43 101 0
91 -111 127 0
118 30 -24 0
-149 21 40 0
-15 -147 -90 0
-153 49 176 0
-84 -59 123 0
-105 -110 -52 0
158 126 98 0
41 -90 169 0
-17 20 -15 0
177 17 -66 0
-145 49 150 0
-33 -63 101 0
92 17 -166 0
-98 107 -50 0
-148 -129 40 0
-98 -59 -16 0
114 126 -24 0
-179 -112 -96 0
-143 -154 -174 0
136 127 71 0
170 64 -13 0
46 42 182 0
52 45 183 0
-190 89 45 0
-47 -157 -24 0
-65 161 -148 0
147 -39 152 0
-176 168 9 0
24 180 25 0
27 -41 59 0
-170 33 -80 0
-26 56 -45 0
-111 167 -53 0
-44 -128 -93 0
-142 -68 -78 0
39 63 44 0
-78 -72 138 0
151 -16 160 0
143 116 -9 0
42 -188 111 0
127 -103 -123 0
-32 51 156 0
175 58 94 0
147 6 -74 0
8 -112 36 0
-115 -42 136 0
7 -33 -106 0
-44 -183 -180 0
-51 60 -108 0
-142 91 -134 0
186 180 126 0
-129 -184 -164 0
50 -22 173 0
-135 -134 80 0
-7 -109 30 0
-3 -90 -109 0
-143 -119 -30 0
-95 101 -52 0
187 149 -101 0
145 148 130 0
-150 -120 172 0
-114 164 -39 0
-136 -188 127 0
-108 68 189 0
169 -124 56 0
9 141 -174 0
7 79 -8 0
163 -84 -29 0
-82 47 169 0
155 51 150 0
96 -156 -73 0
190 37 -8 0
156 168 32 0
-28 -98 -97 0
-91 41 85 0
-48 -13 -168 0
-18 45 43 0
-101 -168 8 0
-171 136 -125 0
-170 176 -46 0
-13 -140 -86 0
-178 14 110 0
68 137 -189 0
110 -169 -32 0
155 65 -34 0
-90 -42 -173 0
-1 -165 124 0
-145 -9 -56 0
110 156 -171 0
178 59 -106 0
30 -159 -28 0
-29 -42 101 0
95 -29 -186 0
-136 159 -89 0
12 176 -19 0
-75 73 -169 0
3 -38 184 0
182 -62 -96 0
14 187 -102 0
166 -163 -175 0
-148 -189 -41 0
19 -90 131 0
-88 -128 -105 0
19 129 94 0
93 -12 -149 0
83 149 101 0
-68 154 -153 0
-40 67 -55 0
77 106 -139 0
-151 56 -114 0
13 163 -62 0
-151 -130 -92 0
-115 -25 65 0
35 64 164 0
-123 28 -121 0
160 110 9 0
-132 -10 -2 0
48 -26 -19 0
-145 183 5 0
171 -38 117 0
-111 -70 -188 0
-109 62 95 0
99 -135 7 0
144 29 -126 0
43 77 -135 0
37 -59 38 0
30 10 182 0
-116 184 -35 0
41 -84 79 0
-154 179 -124 0
174 -45 50 0
-33 -8 -163 0
-134 31 89 0
-75 -89 -39 0
-65 40 -11 0
-76 -37 -135 0
-72 175 -101 0
168 -59 26 0
156 -189 -93 0
128 -3 7 0
44 -17 -5 0
186 -148 163 0
-119 -181 -141 0
-36 -122 127 0
-111 119 46 0
-33 -99 -69 0
-139 133 69 0
52 165 -164 0
157 -46 -32 0
-78 -76 62 0
-41 120 154 0
-3 -167 84 0
26 175 -181 0
93 -60 84 0
-26 -50 -79 0
19 -150 -90 0
172 -41 104 0
85 -65 -185 0
96 -50 51 0
-180 -118 -34 0
-104 -8 82 0
63 -140 -162 0
176 180 138 0
61 -123 -2 0
187 185 108 0
-94 133 -77 0
163 175 -146 0
-170 190 -140 0
-119 128 -12 0
-136 -30 37 0
-95 -38 28 0
104 -33 -167 0
188 -190 -18 0
150 -40 -74 0
179 121 -169 0
-65 -96 -163 0
-84 35 89 0
-173 102 169 0
-13 41 -81 0
161 20 112 0
-40 -141 100 0
142 157 -24 0
-130 -162 -150 0
127 -181 136 0
30 14 -131 0
-134 -32 -152 0
-70 92 -141 0
-85 -4 31 0
30 -50 -89 0
-131 -47 133 0
-123 13 55 0
108 30 -32 0
71 166 178 0
16 -60 -133 0
