p cnf 365 948
-1 -5 3 0
5 -2 -4 0
2 -5 -1 0
-3 -5 -2 0
-3 1 -2 0
-4 -1 -3 0
-3 1 -4 0
-4 5 -1 0
-3 5 4 0
-1 -3 4 0
-3 -5 -1 0
1 2 -4 0
-6 7 -8 0
7 -8 -6 0
-6 7 -10 0
-8 6 -9 0
6 9 7 0
-7 10 8 0
6 8 7 0
-8 -9 6 0
-7 -8 9 0
10 7 -9 0
-7 -10 6 0
9 -7 -10 0
11 -14 13 0
12 14 -11 0
-14 11 12 0
13 14 -12 0
-11 15 -12 0
12 15 -14 0
-14 11 -12 0
13 -12 -15 0
-13 15 -14 0
12 13 -14 0
13 12 14 0
14 11 -13 0
-17 16 -20 0
16 -18 -20 0
-16 17 -20 0
19 17 18 0
19 20 -18 0
16 19 17 0
18 20 19 0
-16 -17 20 0
-17 -19 20 0
19 -16 -18 0
17 -18 19 0
18 -19 -17 0
23 -24 -25 0
25 24 -22 0
-22 -23 -25 0
25 -21 -22 0
23 -21 25 0
-24 -23 -22 0
25 23 22 0
-23 22 24 0
-24 23 25 0
24 22 23 0
-23 21 22 0
-21 22 24 0
-29 28 26 0
-26 -29 -30 0
-26 30 -27 0
-29 -27 28 0
-30 -28 -26 0
-29 28 26 0
-27 -28 29 0
-27 -28 26 0
-27 28 26 0
-30 -28 26 0
-29 26 27 0
26 -27 28 0
-31 34 35 0
35 33 -31 0
-35 -31 33 0
-35 32 34 0
-33 -31 34 0
32 35 -33 0
-35 -33 31 0
34 -33 -32 0
-35 -32 -31 0
-32 -31 35 0
33 -35 -31 0
-31 33 -32 0
-39 37 -36 0
38 -37 -40 0
-36 38 -37 0
-39 37 36 0
39 -38 -36 0
-40 -37 -39 0
-38 -36 37 0
37 36 40 0
-37 -39 -40 0
-38 -40 -37 0
36 -40 -39 0
36 -38 40 0
-45 -42 -41 0
41 45 -43 0
41 43 44 0
42 -41 44 0
43 -41 45 0
42 44 -41 0
44 45 41 0
42 44 43 0
44 -45 41 0
45 44 41 0
-43 -45 44 0
45 41 -43 0
-50 46 -49 0
46 -49 -48 0
49 46 47 0
49 -48 -46 0
-50 46 49 0
50 47 48 0
-47 48 -50 0
-46 -50 -47 0
47 46 50 0
-47 -46 -48 0
-47 50 -49 0
46 -49 -48 0
-54 53 -51 0
53 51 -55 0
51 -52 -54 0
51 -53 -54 0
-54 -53 -51 0
-54 53 52 0
-51 52 -55 0
53 54 -52 0
-53 51 -54 0
-51 -54 -55 0
-53 -52 55 0
-53 -52 54 0
-57 -58 -56 0
-57 56 -59 0
58 59 56 0
-59 57 56 0
-59 57 60 0
-60 58 57 0
-56 -60 -58 0
56 58 57 0
-57 -56 60 0
-56 58 59 0
56 59 -60 0
-59 56 -58 0
62 -64 -61 0
63 -65 -62 0
63 62 -61 0
65 61 -64 0
65 64 62 0
-64 -62 65 0
-61 -62 -63 0
-64 -63 -62 0
-64 -62 -63 0
-63 -65 64 0
62 63 -64 0
65 63 -62 0
-70 69 -68 0
-68 66 69 0
-70 69 66 0
-69 66 -70 0
68 66 67 0
-70 -66 -67 0
68 -67 -66 0
66 -70 -67 0
-67 -69 -66 0
66 -69 68 0
-67 -68 69 0
-66 68 69 0
72 -71 74 0
-73 71 75 0
75 -71 -72 0
-74 75 71 0
75 71 73 0
-75 -73 -71 0
74 75 73 0
-72 -75 71 0
75 73 74 0
72 73 75 0
-71 74 -75 0
-71 72 75 0
-79 -78 -77 0
-80 76 -77 0
77 -79 -78 0
79 78 80 0
-78 77 76 0
80 -77 -78 0
77 -80 79 0
79 -80 -76 0
-78 -77 76 0
-80 -78 -79 0
78 -80 77 0
-77 78 -76 0
-84 81 -83 0
82 -81 -83 0
81 -82 -84 0
83 81 82 0
-81 85 83 0
-85 81 -82 0
-84 85 82 0
-83 -84 -81 0
-83 81 82 0
-81 -82 -83 0
-85 82 -83 0
-84 -85 82 0
-90 -88 86 0
-90 86 87 0
-90 -89 -88 0
-90 87 -86 0
89 -90 -87 0
-88 86 89 0
-86 87 89 0
89 86 90 0
-90 -88 89 0
-89 86 88 0
-86 -89 -90 0
-90 88 -87 0
91 92 94 0
-94 -92 95 0
-91 -94 -92 0
-92 93 91 0
92 93 -95 0
95 -93 92 0
94 91 92 0
95 93 -94 0
93 -92 94 0
-91 93 -92 0
-92 93 -91 0
-92 91 93 0
-100 -99 -96 0
-99 98 -100 0
96 -98 99 0
100 97 -96 0
96 97 -98 0
98 97 -96 0
97 100 -99 0
98 -96 -99 0
100 97 99 0
100 -98 99 0
-99 -100 98 0
-99 -97 98 0
102 105 -101 0
101 104 105 0
-101 -103 105 0
-104 -102 103 0
-105 -101 104 0
104 103 102 0
-101 -105 102 0
-104 -102 -105 0
-103 -102 -101 0
-103 101 102 0
-104 101 -103 0
-101 -105 102 0
-107 106 -108 0
-108 107 110 0
106 108 -109 0
-108 110 109 0
108 109 106 0
110 -106 -108 0
-109 -106 110 0
-109 107 -106 0
108 110 -107 0
108 109 107 0
106 107 109 0
-106 110 107 0
-115 -113 -114 0
-112 115 -113 0
111 -115 -114 0
-115 112 111 0
111 112 -113 0
-114 115 112 0
-111 -115 -114 0
111 115 -114 0
111 113 114 0
-114 115 -113 0
115 -111 -112 0
-111 -113 115 0
119 -118 120 0
-117 -116 -119 0
117 -119 -116 0
116 120 -118 0
-118 -116 119 0
-119 116 -120 0
117 118 -120 0
-117 -116 -119 0
120 119 -118 0
118 -117 119 0
-116 120 -118 0
-120 118 -119 0
122 125 123 0
123 -122 125 0
-125 122 123 0
-123 -124 -125 0
124 123 -121 0
-123 121 -124 0
122 123 -124 0
121 -124 122 0
124 -125 -122 0
123 -125 124 0
124 121 123 0
121 -125 -122 0
-130 -126 -128 0
-127 -129 126 0
-129 128 -126 0
-129 -126 -130 0
-127 130 -126 0
129 126 -128 0
-130 129 126 0
128 -130 126 0
130 -127 129 0
-129 -127 -130 0
127 130 -128 0
127 126 -130 0
-132 133 134 0
-132 -131 -134 0
131 -132 135 0
-131 135 -134 0
-133 131 -135 0
135 -134 131 0
-132 134 131 0
134 135 133 0
131 133 -132 0
131 135 133 0
135 133 -134 0
-135 -134 131 0
138 136 -139 0
139 -138 -140 0
-140 137 139 0
-137 138 136 0
-138 -140 139 0
140 139 138 0
-140 -137 -139 0
-140 -139 137 0
139 -136 137 0
-138 140 136 0
136 -139 140 0
-140 -139 137 0
-143 -145 141 0
142 144 -145 0
-142 144 145 0
145 142 -144 0
-145 143 -142 0
-142 -144 143 0
-143 141 -144 0
141 142 145 0
143 142 -145 0
143 142 -141 0
142 144 143 0
145 -144 143 0
149 -148 -146 0
146 149 -147 0
148 -147 150 0
147 150 149 0
148 -150 -149 0
150 149 -146 0
149 -146 150 0
150 -148 -149 0
-147 146 150 0
148 147 149 0
146 147 -150 0
148 -149 147 0
-153 -155 -151 0
151 -152 -155 0
151 -153 -154 0
-152 -154 153 0
-154 151 153 0
155 -151 154 0
-153 151 155 0
-152 155 151 0
-152 153 -154 0
-155 154 152 0
153 151 152 0
-151 153 -154 0
159 158 157 0
-156 157 159 0
156 159 158 0
-160 158 -159 0
156 160 158 0
-160 159 -158 0
-157 160 159 0
-160 -156 158 0
157 160 -159 0
-157 159 -158 0
-157 -156 158 0
-156 159 -158 0
-161 163 164 0
165 -162 -164 0
161 164 -163 0
165 -164 161 0
162 -165 -164 0
163 -165 164 0
-164 -165 162 0
164 -165 162 0
162 -164 161 0
-162 165 -161 0
165 162 -163 0
162 -161 -165 0
-167 -168 166 0
166 168 169 0
167 -168 -166 0
166 169 -167 0
-170 -168 -169 0
168 170 -169 0
166 167 170 0
-167 169 170 0
-167 169 -168 0
166 168 -169 0
168 -167 -170 0
170 169 -166 0
171 -172 -175 0
-171 175 -172 0
-174 171 173 0
173 174 -171 0
-173 -171 175 0
175 -174 172 0
171 172 175 0
171 172 175 0
175 -172 -171 0
174 173 -172 0
-175 171 -172 0
175 174 171 0
-179 177 176 0
-176 -180 178 0
179 -180 177 0
-179 -178 -180 0
-176 179 -177 0
178 -177 179 0
180 -179 -176 0
-177 -180 -179 0
-178 -180 179 0
180 179 -177 0
177 -180 -178 0
-176 -178 -177 0
185 183 -181 0
185 -184 183 0
182 181 -184 0
185 -184 -181 0
-181 -182 -185 0
-182 -184 181 0
183 -184 181 0
-184 -182 -183 0
-182 -185 -183 0
184 -185 -182 0
-184 -183 185 0
-185 -181 -182 0
-187 189 -190 0
188 -190 186 0
186 -190 189 0
-187 189 186 0
-187 189 -186 0
-188 190 -186 0
186 -188 190 0
189 187 -186 0
-188 189 186 0
-190 -186 -188 0
-187 188 190 0
-187 186 188 0
-195 -194 192 0
-191 -193 194 0
194 -193 -195 0
193 191 192 0
-193 195 191 0
-191 -194 195 0
192 195 193 0
191 194 193 0
-191 194 195 0
-194 191 -195 0
193 -191 -192 0
194 191 -195 0
-196 197 -198 0
198 -199 -197 0
196 -199 -200 0
-197 196 200 0
-197 200 -196 0
199 198 -196 0
-198 -199 196 0
-196 199 200 0
-199 196 -198 0
200 -199 -196 0
200 -198 199 0
200 199 -197 0
-205 -203 -204 0
-205 -202 204 0
-203 -202 -201 0
205 201 204 0
201 205 -202 0
201 -203 202 0
204 -205 -201 0
203 201 -202 0
204 201 -205 0
202 201 203 0
-202 205 201 0
201 202 204 0
208 -207 -209 0
-208 207 -209 0
207 209 -210 0
206 209 210 0
-209 -210 -206 0
210 206 -208 0
-210 -207 -208 0
206 -207 208 0
210 206 208 0
-208 -209 210 0
208 209 -207 0
-210 209 206 0
-211 215 213 0
-214 -212 215 0
-214 -213 -212 0
-212 -213 -214 0
215 -212 213 0
214 -215 -211 0
-215 214 -212 0
212 -211 -215 0
214 -213 -211 0
211 215 214 0
211 215 -214 0
-213 215 -212 0
216 -217 -220 0
216 218 220 0
219 -220 -218 0
-217 218 219 0
-219 -218 216 0
218 220 -217 0
216 217 219 0
-219 220 217 0
-216 220 -218 0
-216 -217 220 0
-216 -219 218 0
216 217 -219 0
-221 222 -225 0
223 -224 225 0
-221 223 -222 0
222 -221 -223 0
223 -221 224 0
-225 -221 -224 0
224 221 -222 0
222 221 225 0
225 223 221 0
224 -225 -223 0
224 -225 223 0
221 -224 -223 0
-230 -228 229 0
229 -226 -230 0
-230 -228 226 0
-227 228 -230 0
227 230 229 0
227 226 -230 0
229 -230 -226 0
226 -230 228 0
227 226 230 0
-230 -227 -226 0
-230 -228 227 0
-229 226 -227 0
-233 231 -232 0
234 -232 -231 0
232 -235 234 0
235 232 231 0
-231 234 235 0
234 233 -231 0
231 -232 233 0
-233 -232 231 0
232 -234 231 0
234 232 -233 0
232 -233 234 0
-234 -233 231 0
-238 236 240 0
240 239 -237 0
239 240 237 0
236 237 -238 0
-236 238 237 0
-236 -239 -237 0
-238 239 236 0
-237 240 236 0
238 236 -239 0
238 239 240 0
-238 239 240 0
-240 236 -237 0
243 241 -245 0
-242 -243 245 0
244 245 241 0
241 -242 245 0
245 -243 241 0
243 242 -245 0
241 -244 -242 0
241 -242 -245 0
241 243 -242 0
-241 242 -245 0
241 -245 243 0
-243 242 245 0
-246 248 247 0
249 -250 247 0
248 -249 -250 0
-247 -250 -249 0
250 247 246 0
250 248 -247 0
249 -246 -247 0
-247 -248 249 0
247 246 -248 0
246 247 248 0
247 -246 -249 0
-247 -250 -246 0
-252 -255 -253 0
251 -255 252 0
251 253 255 0
254 253 252 0
-251 -254 252 0
-253 -251 255 0
254 -255 252 0
255 -252 251 0
255 -253 -252 0
251 252 253 0
-252 251 254 0
254 255 252 0
260 256 259 0
257 258 -259 0
-257 259 258 0
256 257 259 0
-260 257 259 0
257 259 260 0
256 259 -257 0
-258 -257 256 0
256 260 -259 0
-257 -258 -260 0
-258 -259 257 0
-260 -256 -259 0
-264 263 -265 0
262 263 -264 0
-263 264 262 0
263 265 261 0
-261 264 265 0
-262 264 265 0
264 -263 -262 0
-265 -261 264 0
264 -263 261 0
261 264 263 0
265 263 264 0
-262 263 261 0
-267 -269 266 0
266 269 267 0
270 -268 266 0
268 270 -269 0
266 268 269 0
270 -267 266 0
268 -266 -270 0
266 269 -270 0
266 -270 -267 0
-268 270 269 0
-269 270 -268 0
-266 -269 270 0
274 -272 -273 0
273 -272 -274 0
-271 275 272 0
-274 -272 275 0
-273 -272 -271 0
274 272 273 0
-275 -274 272 0
275 271 -273 0
-274 275 -271 0
271 -275 273 0
274 273 -275 0
274 -272 -271 0
-280 277 -276 0
279 -280 278 0
277 -278 -279 0
277 -279 -276 0
-277 -278 279 0
280 -277 -276 0
280 278 277 0
-278 -279 -276 0
276 280 277 0
280 -279 -277 0
-279 276 280 0
280 278 277 0
-285 -282 -281 0
-285 -284 -283 0
284 282 -283 0
284 -285 283 0
281 -282 283 0
283 -281 282 0
-281 -285 -284 0
-284 285 -282 0
-285 -283 282 0
285 281 -283 0
281 -285 284 0
-281 -285 283 0
287 -286 289 0
287 286 -290 0
290 -286 287 0
288 -290 286 0
-289 290 288 0
-289 -286 -288 0
287 289 288 0
-289 288 -287 0
289 -286 -290 0
-289 286 288 0
287 -288 290 0
287 286 -289 0
293 -291 -294 0
291 294 293 0
291 292 295 0
294 295 -291 0
291 -295 -292 0
293 -294 -292 0
294 292 291 0
292 293 294 0
291 -293 295 0
-293 291 -294 0
292 -295 -294 0
295 292 293 0
-298 -299 -296 0
299 297 296 0
296 298 299 0
300 -296 -298 0
-296 297 298 0
300 298 -297 0
-298 296 300 0
-300 -298 297 0
-297 -298 -300 0
300 297 296 0
298 299 -300 0
296 -297 300 0
302 -303 -305 0
303 304 -302 0
301 -303 304 0
-305 302 -301 0
-305 -302 301 0
305 304 302 0
304 -303 -305 0
302 301 304 0
-301 304 -302 0
303 304 -302 0
304 -301 -302 0
-304 -305 302 0
-310 307 306 0
-309 -308 310 0
309 -307 -310 0
307 -308 -310 0
310 -307 -309 0
308 309 307 0
309 306 308 0
-308 306 -309 0
307 306 310 0
-307 -308 -310 0
-309 -306 310 0
-307 -306 309 0
315 311 312 0
314 311 -312 0
-312 313 -315 0
-312 315 -311 0
-312 -311 314 0
313 -311 -314 0
313 314 -311 0
315 312 311 0
315 311 -314 0
-314 -311 315 0
-315 312 311 0
315 -311 -312 0
-318 -316 319 0
316 320 319 0
319 317 -318 0
319 317 -316 0
-318 -316 319 0
316 320 317 0
318 -316 -319 0
317 -316 320 0
-316 319 -317 0
-317 -319 -316 0
-316 319 320 0
-318 319 316 0
325 324 321 0
321 -323 -324 0
322 -323 -324 0
-323 -325 -321 0
323 322 -321 0
323 -325 322 0
-322 324 -323 0
-325 322 321 0
-323 324 -325 0
-323 322 -324 0
324 -321 325 0
-322 324 321 0
-327 328 330 0
326 -330 328 0
-328 -330 326 0
-328 -330 -329 0
327 -326 -330 0
-326 328 327 0
-328 -327 -329 0
-326 329 330 0
-329 -330 -327 0
327 330 329 0
329 326 -327 0
326 329 330 0
-335 333 -331 0
-333 -332 -334 0
-331 -334 333 0
332 -333 334 0
-331 -332 333 0
335 331 -333 0
335 331 334 0
-335 -333 -334 0
335 -334 332 0
-333 -334 -331 0
332 -334 331 0
334 331 -335 0
-338 -340 -339 0
-340 -339 -337 0
-336 -339 340 0
337 -338 336 0
-338 -340 336 0
338 -339 -340 0
340 -337 338 0
-337 -339 340 0
-336 -340 339 0
-337 336 -340 0
-340 -338 -339 0
339 337 -338 0
-345 343 342 0
-343 -344 341 0
341 -342 345 0
345 341 -344 0
343 -344 -342 0
342 345 344 0
342 -344 -341 0
-344 -342 345 0
343 345 -342 0
-343 -341 342 0
-342 344 341 0
-345 -343 341 0
-347 346 348 0
350 346 347 0
-348 347 -350 0
350 -347 348 0
-350 -348 -347 0
347 -348 -350 0
349 -350 348 0
349 346 347 0
-347 350 -349 0
346 -350 -348 0
-347 349 350 0
-349 -347 -350 0
355 -351 352 0
351 352 355 0
-351 -353 -354 0
354 -351 353 0
-355 -354 -352 0
-354 355 -352 0
-353 354 355 0
351 -352 353 0
351 354 355 0
353 -351 352 0
-355 -354 351 0
352 351 -354 0
-360 359 -358 0
357 -360 -358 0
360 -358 357 0
-360 -357 358 0
-356 -360 359 0
-356 -357 -358 0
360 -358 357 0
358 -360 -356 0
-360 -357 356 0
358 357 -359 0
-359 -358 -357 0
358 -356 360 0
361 -364 -363 0
361 362 365 0
-363 -365 -361 0
363 361 362 0
-363 361 364 0
-361 362 -365 0
361 -364 -362 0
-365 -362 364 0
363 -362 -361 0
-361 -365 -363 0
362 361 364 0
361 -364 -363 0
1 -6 0
6 -11 0
11 -16 0
16 -21 0
21 -26 0
26 -31 0
31 -36 0
36 -41 0
41 -46 0
46 -51 0
51 -56 0
56 -61 0
61 -66 0
66 -71 0
71 -76 0
76 -81 0
81 -86 0
86 -91 0
91 -96 0
96 -101 0
101 -106 0
106 -111 0
111 -116 0
116 -121 0
121 -126 0
126 -131 0
131 -136 0
136 -141 0
141 -146 0
146 -151 0
151 -156 0
156 -161 0
161 -166 0
166 -171 0
171 -176 0
176 -181 0
181 -186 0
186 -191 0
191 -196 0
196 -201 0
201 -206 0
206 -211 0
211 -216 0
216 -221 0
221 -226 0
226 -231 0
231 -236 0
236 -241 0
241 -246 0
246 -251 0
251 -256 0
256 -261 0
261 -266 0
266 -271 0
271 -276 0
276 -281 0
281 -286 0
286 -291 0
291 -296 0
296 -301 0
301 -306 0
306 -311 0
311 -316 0
316 -321 0
321 -326 0
326 -331 0
331 -336 0
336 -341 0
341 -346 0
346 -351 0
351 -356 0
356 -361 0
