p cnf 380 987
2 1 -3 0
-3 -2 -4 0
-5 -4 2 0
3 -2 -4 0
2 3 -5 0
1 -2 -3 0
2 4 -1 0
1 -2 3 0
-4 -3 5 0
-3 2 4 0
1 -3 -4 0
-3 -2 -5 0
7 -10 -9 0
8 -9 10 0
-9 -8 -10 0
10 6 -9 0
-7 10 9 0
7 9 -8 0
-9 -6 7 0
-8 -6 7 0
8 10 -6 0
7 10 -9 0
8 9 -7 0
9 -10 7 0
-14 -12 -13 0
11 13 -15 0
-14 11 -15 0
13 12 14 0
-15 -12 -14 0
-11 15 -12 0
-11 -12 -13 0
-12 -13 -15 0
-11 -15 -14 0
12 -15 -13 0
-14 12 11 0
-13 15 -12 0
16 18 -20 0
20 16 -17 0
-18 -19 -16 0
19 20 -17 0
17 16 19 0
-18 -17 16 0
17 -16 -19 0
-18 -19 -17 0
16 18 19 0
18 20 16 0
18 16 -17 0
-16 -20 -17 0
22 24 -23 0
-23 24 22 0
-23 -22 -21 0
22 -25 23 0
21 22 23 0
-25 -22 21 0
22 25 -21 0
-23 22 21 0
23 21 -22 0
25 -24 -22 0
23 -21 -22 0
23 -24 25 0
-27 -26 -29 0
27 -28 -29 0
27 -26 -30 0
-29 27 -26 0
-30 -26 29 0
-27 -30 -29 0
26 29 30 0
-30 -27 29 0
-28 -26 30 0
-27 30 -28 0
29 27 30 0
-28 29 -30 0
-31 -34 -32 0
34 -32 35 0
-33 -32 35 0
-32 35 -34 0
31 -33 -35 0
-34 -32 -33 0
-33 35 31 0
-32 34 31 0
-34 32 -31 0
-32 34 33 0
31 35 34 0
-32 34 -33 0
38 37 -40 0
38 37 -40 0
-38 -40 -39 0
40 -36 -37 0
-40 38 -36 0
40 36 -39 0
36 39 -40 0
-40 -38 39 0
36 -39 -40 0
-36 -38 -40 0
36 -38 37 0
-36 -40 39 0
-42 45 41 0
41 -45 -43 0
-45 -44 -42 0
-42 43 -44 0
-42 -41 43 0
-44 45 -43 0
-42 -44 -43 0
43 -44 -45 0
-44 -43 42 0
43 -41 -45 0
-43 -41 44 0
41 -43 -42 0
48 50 46 0
-47 48 46 0
48 -47 -49 0
49 47 -48 0
-50 -49 46 0
50 46 47 0
47 50 -48 0
49 -48 -46 0
-50 -48 49 0
-47 -50 49 0
-50 49 46 0
47 -48 -49 0
-53 51 -55 0
-54 -53 -55 0
-55 -54 52 0
-52 -55 -51 0
52 -55 -54 0
-53 -51 55 0
-54 -52 -55 0
52 54 -51 0
54 51 -55 0
-54 52 -55 0
-54 -52 -55 0
-55 53 -51 0
57 56 -58 0
-56 59 -60 0
60 58 57 0
60 57 -56 0
-56 58 -59 0
60 58 59 0
-58 -59 -57 0
56 58 60 0
58 -57 -59 0
60 59 56 0
-60 -57 56 0
-60 59 57 0
62 -61 -65 0
62 64 -61 0
64 -62 -65 0
65 -63 -62 0
-64 -61 -62 0
-64 61 62 0
61 64 -63 0
-64 -61 -63 0
-61 -62 -65 0
63 61 65 0
63 -64 -61 0
-64 -65 -62 0
-69 -70 68 0
69 67 70 0
66 70 -67 0
-67 -66 -69 0
70 -66 68 0
69 -67 -70 0
67 -68 -70 0
-68 69 -66 0
-70 66 -68 0
70 -66 69 0
66 -67 -70 0
67 -68 69 0
73 -74 -75 0
73 -72 -75 0
-71 72 -74 0
-73 71 -75 0
74 73 -72 0
-72 71 -75 0
74 -72 73 0
75 -71 -72 0
-73 72 74 0
74 -72 71 0
73 71 -74 0
72 75 71 0
-79 -76 -80 0
-78 -80 -77 0
78 -76 77 0
79 -77 80 0
-80 76 78 0
-79 78 80 0
78 -77 80 0
-79 -77 -76 0
-79 -76 77 0
80 -76 -78 0
-80 -78 79 0
-77 -79 -78 0
82 -85 84 0
-81 84 85 0
83 -81 -84 0
-81 -82 -85 0
85 81 82 0
83 -85 81 0
-85 -82 84 0
-82 -81 85 0
-83 -82 84 0
-82 83 81 0
81 84 -83 0
84 83 82 0
-88 90 -86 0
86 -90 -87 0
-87 86 -90 0
87 88 86 0
86 -90 -89 0
86 88 87 0
89 -90 -87 0
88 -90 -86 0
-86 87 -90 0
89 90 -86 0
-87 -86 90 0
-89 90 -88 0
-93 94 95 0
-91 93 -95 0
93 -91 92 0
91 95 -94 0
-94 -93 -95 0
-93 94 95 0
-92 -93 94 0
-92 95 -93 0
95 93 91 0
93 95 94 0
95 -92 94 0
-93 -91 -92 0
-98 -100 -99 0
100 99 -98 0
97 98 96 0
98 100 96 0
-99 -97 -96 0
98 -99 -97 0
-99 -100 -97 0
-98 -99 -100 0
98 100 96 0
-100 99 98 0
98 97 -100 0
100 -97 -96 0
-101 102 -103 0
103 101 104 0
-105 104 -102 0
103 -104 -105 0
-105 -102 -104 0
105 103 102 0
102 -103 105 0
-105 -104 103 0
105 -102 103 0
-104 103 105 0
101 103 -102 0
-101 -104 105 0
-107 -106 -108 0
108 106 110 0
107 -110 -106 0
-109 -106 108 0
107 -108 -106 0
110 -106 -107 0
-110 -107 -108 0
107 -109 -108 0
-106 -107 -110 0
110 106 -109 0
109 -107 -106 0
106 -108 -110 0
111 112 -113 0
113 -112 115 0
112 -115 113 0
114 112 113 0
-115 -113 114 0
-112 114 115 0
-113 -111 -112 0
-113 -114 -112 0
115 -112 113 0
-114 -113 111 0
112 115 -113 0
113 -115 -112 0
-116 118 -119 0
116 118 119 0
-119 116 118 0
-118 117 -116 0
-120 -118 117 0
-118 117 -120 0
118 119 117 0
120 117 -116 0
118 119 -120 0
-116 117 -118 0
-116 -119 -117 0
-117 119 116 0
121 -122 125 0
122 123 124 0
122 124 -123 0
-124 123 125 0
-124 125 123 0
-121 124 123 0
124 -121 123 0
-123 122 -124 0
-125 123 -124 0
-125 122 123 0
-122 -123 -124 0
-125 122 121 0
127 126 129 0
-129 127 128 0
130 129 -128 0
128 -129 -126 0
-130 127 -129 0
-127 126 128 0
-129 -130 -126 0
130 -129 128 0
128 -130 129 0
129 -128 130 0
-129 -130 -127 0
130 -128 127 0
132 134 -135 0
-131 -132 133 0
-131 -134 -132 0
131 -133 -134 0
135 133 -132 0
-134 131 -133 0
131 -134 -133 0
134 135 -132 0
132 134 131 0
-135 132 -131 0
-132 -131 -134 0
-135 -134 131 0
137 140 -139 0
137 136 -138 0
-136 137 -139 0
-138 137 -139 0
-139 136 -138 0
138 -136 -139 0
-137 136 139 0
137 -138 -136 0
-137 139 138 0
-137 -139 -136 0
-136 137 -140 0
136 -139 -137 0
-143 142 -145 0
-142 144 -141 0
-143 145 144 0
-141 -143 -142 0
-143 -141 -145 0
143 -142 145 0
143 -145 -142 0
-143 -145 142 0
-143 141 145 0
145 -144 141 0
143 141 -142 0
143 145 -144 0
-146 150 148 0
-147 -148 -149 0
-147 -146 149 0
-147 150 -149 0
150 148 146 0
146 -149 -147 0
147 146 -148 0
-150 -146 -149 0
-147 146 -148 0
-150 146 149 0
150 -147 148 0
-148 149 147 0
-151 -155 -152 0
152 -151 154 0
153 -154 155 0
-154 155 -151 0
155 -152 151 0
-154 -151 155 0
-154 -152 153 0
-153 152 -154 0
154 -153 155 0
151 152 -153 0
155 -153 -151 0
-153 -155 -152 0
-159 -158 -156 0
159 157 -156 0
160 -158 156 0
-156 -159 -160 0
159 -156 -160 0
158 -160 -159 0
160 156 -157 0
156 -159 -158 0
158 156 157 0
-159 157 156 0
-157 158 -159 0
-158 -159 -156 0
-162 165 163 0
164 -161 -162 0
165 -161 -163 0
-161 163 -162 0
-164 162 -165 0
161 163 -164 0
-162 163 164 0
-161 -163 -164 0
-163 162 161 0
161 -165 -164 0
-165 162 164 0
162 -165 -161 0
167 -168 -170 0
170 -168 -166 0
-166 167 -169 0
-168 -169 167 0
-168 -170 169 0
-169 168 -170 0
168 167 -166 0
-169 170 -166 0
-169 170 168 0
167 -169 168 0
168 167 -166 0
-166 -167 169 0
-171 -173 174 0
174 -172 173 0
-171 175 172 0
173 -172 -171 0
-172 173 -171 0
-173 -172 174 0
-173 175 -171 0
-171 -175 173 0
172 -174 -173 0
-171 174 -173 0
172 173 -174 0
174 175 -171 0
178 -179 -177 0
-178 -180 -179 0
-176 177 -179 0
-180 179 177 0
177 -178 180 0
-179 176 -180 0
-176 180 -178 0
180 -176 178 0
-178 -176 -180 0
177 176 179 0
177 176 -178 0
180 -176 -179 0
-182 184 181 0
-183 -184 182 0
-181 -184 182 0
-184 -185 181 0
185 -182 184 0
183 184 -181 0
-185 184 -181 0
-185 184 -183 0
182 -184 -185 0
-181 -183 -184 0
181 -184 182 0
185 -183 -182 0
-188 190 189 0
-190 189 186 0
-187 -190 -188 0
-189 188 190 0
-188 -189 190 0
-190 186 -188 0
-186 190 -188 0
-189 190 -187 0
-187 -188 186 0
-186 -187 189 0
-188 189 -190 0
189 186 -188 0
-195 194 191 0
194 193 195 0
194 -193 -192 0
194 -191 -192 0
194 -192 -191 0
193 -192 -194 0
195 191 192 0
-193 194 192 0
195 192 193 0
-194 -195 191 0
-193 192 191 0
-193 -195 191 0
199 -196 198 0
200 198 199 0
-198 196 200 0
-198 -196 200 0
-200 199 197 0
200 198 197 0
-198 -196 199 0
197 -198 -200 0
-199 198 -197 0
-200 -199 -196 0
-196 -200 197 0
200 -197 199 0
-205 -201 203 0
-202 201 204 0
-203 201 -202 0
-202 -205 201 0
201 -203 -204 0
-203 -202 205 0
204 -203 -205 0
-205 -201 202 0
205 -203 -204 0
-205 -203 -202 0
-202 203 205 0
205 -203 -202 0
-207 -210 -206 0
-206 -210 208 0
-206 -210 -207 0
210 -209 208 0
-207 206 -209 0
209 210 -206 0
209 206 -210 0
-208 206 -210 0
206 209 208 0
-207 208 -209 0
206 -210 -209 0
206 210 -208 0
-214 -213 215 0
-214 215 211 0
215 211 -213 0
-215 213 -212 0
213 -212 -211 0
-215 -214 211 0
-215 212 -211 0
215 211 213 0
-212 215 -214 0
-213 214 211 0
212 213 -214 0
213 215 214 0
220 216 -217 0
-218 -216 220 0
-220 -217 -216 0
218 217 219 0
-220 216 217 0
218 -216 -217 0
-217 219 -220 0
220 -219 -216 0
-219 220 -217 0
220 219 -217 0
-218 217 -219 0
-218 -219 216 0
221 -224 -223 0
222 -224 -221 0
-224 -223 -222 0
225 222 -221 0
224 225 -223 0
225 -224 -222 0
224 221 -223 0
-222 -223 -225 0
-225 222 221 0
-223 -221 224 0
-225 224 221 0
-225 223 -221 0
-226 -229 227 0
229 -230 226 0
-227 228 -226 0
226 230 -227 0
229 228 230 0
227 -228 226 0
227 230 229 0
230 -229 227 0
230 227 -229 0
-228 227 226 0
227 -230 228 0
228 227 229 0
-234 -232 -233 0
233 -234 -232 0
-235 -231 -232 0
232 -231 233 0
-232 -235 234 0
235 232 -231 0
-231 -233 -235 0
-231 -233 234 0
231 -232 234 0
235 -232 -234 0
231 -233 -232 0
-231 233 235 0
-237 -239 -238 0
236 -238 -237 0
-240 -237 -239 0
239 -236 -237 0
-240 238 236 0
237 -236 -238 0
-240 236 237 0
-237 238 -240 0
236 238 237 0
-240 -239 236 0
-240 238 239 0
240 239 237 0
244 241 245 0
245 243 -244 0
245 -243 242 0
244 -245 242 0
-244 -245 -242 0
-243 241 -244 0
-245 -242 243 0
-245 -241 -242 0
-241 242 245 0
-242 -245 -244 0
-244 245 243 0
-242 -245 -243 0
246 250 -249 0
250 -247 249 0
-248 247 246 0
-246 250 249 0
-249 248 247 0
250 247 -246 0
250 248 246 0
247 -248 250 0
247 -248 -250 0
250 247 246 0
249 248 -247 0
-247 248 -246 0
-254 -255 251 0
253 -252 251 0
-253 -252 254 0
252 -251 -254 0
252 251 -255 0
251 -255 -252 0
-251 252 255 0
-251 252 -255 0
255 -254 -252 0
255 -253 -254 0
-253 254 -252 0
253 -251 -254 0
-258 259 -256 0
-259 260 258 0
257 260 -258 0
-257 260 258 0
256 -257 -258 0
260 -257 259 0
260 257 -259 0
-260 258 257 0
-259 256 -260 0
-257 -260 258 0
258 257 260 0
256 -258 -259 0
-265 -264 261 0
-263 265 -261 0
264 -262 -265 0
-261 -265 262 0
261 -264 -263 0
-264 -263 -265 0
-263 265 262 0
-262 265 -263 0
-264 -265 -262 0
-264 265 261 0
-262 265 -263 0
-264 -262 263 0
-269 -270 -268 0
-269 -266 267 0
-266 -267 -270 0
269 -268 267 0
268 -267 -269 0
-266 269 -268 0
-267 -268 266 0
270 268 267 0
-269 -266 268 0
266 -267 -268 0
-270 -269 -267 0
266 270 -267 0
274 273 -272 0
275 -271 274 0
271 275 273 0
-273 274 -275 0
275 -271 -272 0
-275 -273 -274 0
275 274 -272 0
274 -271 -272 0
-272 -274 -273 0
-273 -271 -275 0
274 272 -273 0
275 274 273 0
276 278 279 0
-280 -279 278 0
-277 -278 276 0
-280 -278 276 0
-279 278 280 0
278 280 -277 0
-278 -280 -276 0
-280 -278 276 0
-280 -277 -279 0
-277 -276 -278 0
280 -278 -277 0
-280 276 277 0
-283 -282 -285 0
284 -283 -281 0
281 -283 -282 0
-281 283 -282 0
283 -285 -284 0
285 -281 284 0
285 -283 -282 0
282 -281 -285 0
-282 285 284 0
-282 -285 284 0
281 -282 283 0
-283 -285 -282 0
288 286 -287 0
-287 -290 288 0
287 -290 286 0
-290 -289 287 0
-290 -288 286 0
290 -287 289 0
-289 290 -286 0
287 -288 -286 0
289 286 -288 0
290 -286 -287 0
290 -286 -287 0
-289 -286 287 0
293 -292 -294 0
293 -292 294 0
-292 293 291 0
-294 -292 291 0
-293 295 -292 0
292 -291 294 0
293 -291 292 0
-291 -292 -295 0
295 294 -292 0
293 294 295 0
-295 292 -293 0
292 -295 -294 0
-300 298 -297 0
298 -297 300 0
300 -298 -296 0
299 -297 -296 0
-298 297 -300 0
-296 298 300 0
-299 -298 296 0
-299 -298 297 0
-297 298 300 0
296 297 -300 0
299 300 -296 0
298 -296 -299 0
-303 302 305 0
-302 304 -305 0
302 -304 -301 0
301 304 -303 0
-303 304 301 0
-301 -303 304 0
-303 -304 -301 0
304 301 -305 0
303 301 -304 0
-301 -303 302 0
301 -304 -303 0
301 -303 305 0
309 -306 -310 0
307 -306 -308 0
-310 309 306 0
-309 306 -307 0
309 -308 307 0
-309 306 -307 0
-308 -306 -309 0
308 -307 306 0
-307 306 308 0
-308 306 307 0
-309 308 310 0
310 -307 308 0
315 -312 -314 0
-314 -312 311 0
315 -313 312 0
-311 -313 -315 0
-313 -314 -311 0
315 -312 -311 0
-312 315 -313 0
-311 -313 312 0
312 -311 -315 0
-311 312 -314 0
-312 -315 -314 0
-312 311 -314 0
-317 320 -316 0
-317 319 -318 0
319 318 -320 0
319 -317 316 0
-318 -316 -319 0
-316 319 318 0
-317 -316 318 0
-318 319 317 0
320 318 316 0
317 -319 318 0
319 318 317 0
-320 318 -319 0
-325 -323 -322 0
-322 325 -324 0
-321 325 -322 0
-323 -322 325 0
-325 -324 323 0
-325 324 322 0
-322 323 324 0
321 -325 -324 0
-323 -322 -324 0
323 321 -325 0
-325 -324 323 0
325 321 -324 0
-327 328 326 0
-329 -330 -327 0
-330 -327 329 0
-330 -328 329 0
-330 -329 327 0
326 328 -329 0
329 327 328 0
326 -327 -330 0
-329 -328 327 0
-326 330 327 0
-328 329 327 0
326 -327 330 0
332 333 334 0
-332 331 334 0
333 331 334 0
333 334 -331 0
332 333 -331 0
335 -331 -333 0
-333 332 331 0
-333 -334 -335 0
-335 331 -333 0
332 -334 335 0
-333 335 -334 0
334 -332 335 0
-338 -336 -337 0
336 -339 340 0
339 336 -338 0
-337 339 -340 0
-336 340 338 0
-338 339 336 0
-339 338 -337 0
-338 -337 -340 0
340 -339 337 0
339 337 338 0
336 -338 -339 0
337 -338 336 0
-342 344 345 0
341 342 345 0
341 -342 -345 0
-344 345 -342 0
-345 -341 342 0
-343 344 342 0
-345 -343 344 0
344 345 342 0
-343 344 342 0
-345 343 344 0
341 343 -345 0
-345 343 341 0
-350 347 346 0
-347 346 -349 0
-350 -348 346 0
347 -346 -350 0
347 350 -349 0
-346 347 -348 0
-347 350 349 0
350 348 -349 0
346 348 347 0
347 -349 350 0
348 349 -346 0
349 348 347 0
-353 -351 -355 0
351 -353 -355 0
352 -351 355 0
-354 -352 351 0
355 351 354 0
-353 -355 -351 0
-351 354 352 0
354 -353 -351 0
351 -355 -353 0
-353 354 351 0
351 -352 -353 0
353 352 351 0
357 -358 356 0
-359 -360 -357 0
-356 -359 358 0
-356 -360 357 0
-360 358 -359 0
358 357 -356 0
359 -357 356 0
356 360 358 0
-356 358 -359 0
-360 359 358 0
-356 -358 -360 0
-356 359 -358 0
-365 -362 363 0
-364 362 365 0
361 362 363 0
361 363 364 0
365 -361 364 0
-365 363 361 0
362 363 -361 0
363 362 -364 0
-364 -363 361 0
-362 363 364 0
364 -365 -362 0
365 363 -361 0
-367 368 369 0
370 -369 -366 0
-368 -369 366 0
366 -367 -370 0
370 -367 368 0
369 -370 -366 0
370 366 368 0
-368 -366 -369 0
367 -369 -370 0
366 368 370 0
-369 366 -368 0
367 -369 -366 0
374 -372 371 0
-372 -371 375 0
-373 372 375 0
372 -373 371 0
-371 -374 373 0
372 374 373 0
-374 -371 372 0
-375 -374 -371 0
373 -371 -372 0
-375 -374 -372 0
371 -372 373 0
-374 375 -373 0
378 -380 -379 0
379 378 -377 0
-380 378 377 0
378 -380 -379 0
379 -377 -378 0
376 -378 379 0
-377 376 379 0
380 379 377 0
-379 -380 -378 0
-377 -380 -379 0
-378 379 380 0
376 -379 -378 0
1 -6 0
6 -11 0
11 -16 0
16 -21 0
21 -26 0
26 -31 0
31 -36 0
36 -41 0
41 -46 0
46 -51 0
51 -56 0
56 -61 0
61 -66 0
66 -71 0
71 -76 0
76 -81 0
81 -86 0
86 -91 0
91 -96 0
96 -101 0
101 -106 0
106 -111 0
111 -116 0
116 -121 0
121 -126 0
126 -131 0
131 -136 0
136 -141 0
141 -146 0
146 -151 0
151 -156 0
156 -161 0
161 -166 0
166 -171 0
171 -176 0
176 -181 0
181 -186 0
186 -191 0
191 -196 0
196 -201 0
201 -206 0
206 -211 0
211 -216 0
216 -221 0
221 -226 0
226 -231 0
231 -236 0
236 -241 0
241 -246 0
246 -251 0
251 -256 0
256 -261 0
261 -266 0
266 -271 0
271 -276 0
276 -281 0
281 -286 0
286 -291 0
291 -296 0
296 -301 0
301 -306 0
306 -311 0
311 -316 0
316 -321 0
321 -326 0
326 -331 0
331 -336 0
336 -341 0
341 -346 0
346 -351 0
351 -356 0
356 -361 0
361 -366 0
366 -371 0
371 -376 0
