p cnf 240 1022
63 -95 101 0
-176 67 76 0
31 100 189 0
-115 36 -208 0
-188 237 -120 0
193 23 69 0
-72 225 -51 0
-152 -7 147 0
14 199 154 0
-190 210 -114 0
-189 -38 -205 0
151 -178 8 0
-81 15 115 0
-132 235 -222 0
238 -125 -174 0
-51 234 7 0
-177 -13 -191 0
-239 -234 -3 0
102 12 233 0
75 16 169 0
124 -43 -39 0
101 29 32 0
-89 -183 -198 0
-42 -63 -103 0
72 -11 -83 0
-175 -207 -136 0
203 115 -52 0
-86 71 42 0
8 -193 74 0
72 63 150 0
-225 -179 20 0
136 202 -141 0
-164 63 139 0
-225 27 64 0
154 -148 -210 0
70 20 181 0
44 204 -26 0
-205 135 -208 0
45 61 105 0
-19 70 93 0
80 164 51 0
73 101 -34 0
-215 -124 36 0
40 138 -189 0
-209 151 -30 0
-122 -63 -96 0
117 230 -16 0
9 -44 -7 0
125 -101 -159 0
-83 -26 104 0
98 -18 -156 0
-93 -219 -41 0
-216 -185 109 0
-4 -213 77 0
160 -107 -168 0
-240 105 100 0
-113 216 186 0
-68 -123 121 0
186 9 -183 0
161 -45 9 0
9 27 143 0
-231 140 -95 0
36 -164 -86 0
-70 -57 -210 0
-3 122 76 0
-230 -206 49 0
203 153 -82 0
-188 219 115 0
174 -230 -105 0
184 -108 202 0
-14 -31 -104 0
163 12 170 0
65 -51 -91 0
-90 23 -88 0
-186 164 132 0
46 232 -175 0
182 240 96 0
168 -226 68 0
-52 -172 233 0
78 169 -87 0
184 -117 -196 0
117 134 142 0
216 207 113 0
148 69 135 0
-185 -55 -222 0
92 160 -78 0
37 -197 28 0
177 178 -17 0
7 83 173 0
-176 -79 108 0
-135 -4 -227 0
-207 -10 -87 0
-234 198 40 0
216 -178 -210 0
81 -234 -99 0
-107 111 -80 0
-45 -22 -228 0
185 -73 75 0
145 126 -188 0
41 -117 43 0
120 171 141 0
116 -212 -205 0
46 -206 154 0
-235 -238 41 0
117 -103 -69 0
-147 -122 -82 0
-79 -230 -68 0
107 142 -147 0
28 -44 -196 0
52 49 224 0
12 129 161 0
-88 -25 -19 0
168 210 152 0
237 -35 20 0
-115 119 157 0
-68 -199 -177 0
215 108 138 0
-172 -204 -213 0
132 98 230 0
-1 -143 125 0
-134 130 -172 0
105 -192 -232 0
71 58 -127 0
-166 116 -153 0
214 27 96 0
-188 140 138 0
-48 19 -71 0
205 -217 103 0
-73 132 175 0
-88 -117 33 0
82 129 -206 0
103 -135 -178 0
71 -174 -143 0
101 129 -217 0
116 22 144 0
89 209 -16 0
-162 152 145 0
156 2 -184 0
-207 75 182 0
103 195 55 0
47 -170 -36 0
62 135 -174 0
108 232 215 0
74 -121 -31 0
235 -135 -39 0
-91 -22 107 0
128 184 58 0
-88 54 -5 0
195 231 -160 0
-73 -125 -146 0
-106 141 76 0
-131 145 120 0
-177 116 38 0
154 -32 -2 0
-30 217 21 0
49 176 -225 0
96 -178 163 0
92 -72 -2 0
185 -231 -112 0
145 95 -105 0
-196 -184 207 0
73 170 183 0
-139 -140 199 0
-161 55 68 0
-215 -231 -26 0
101 139 -214 0
-165 146 -12 0
-4 169 -200 0
-45 -47 68 0
-58 44 -169 0
159 -219 -136 0
125 -34 202 0
17 -15 -23 0
93 147 182 0
-213 -104 -131 0
-109 -13 -202 0
64 -89 -121 0
182 197 210 0
-142 35 -59 0
85 88 -152 0
83 -239 75 0
-82 149 -27 0
-17 151 -79 0
-158 -130 -156 0
184 183 -239 0
191 -161 -138 0
147 200 111 0
-37 -136 -28 0
-21 -110 34 0
173 60 -175 0
140 177 -6 0
-120 94 222 0
-100 135 -206 0
-183 -80 67 0
-10 23 -59 0
170 -218 105 0
51 95 110 0
-203 52 -99 0
44 216 -69 0
213 -99 177 0
70 67 -44 0
-180 -168 70 0
151 -236 -216 0
-15 48 -101 0
-9 -143 -82 0
-53 -208 72 0
74 152 16 0
206 208 -115 0
-223 -184 111 0
-175 -57 233 0
-60 223 -129 0
-181 44 -76 0
-204 -170 109 0
-78 148 -222 0
129 -158 -100 0
101 209 202 0
84 -108 -175 0
210 -233 66 0
-99 68 -62 0
165 -112 -82 0
-112 227 198 0
-19 -237 181 0
-236 -228 -97 0
-48 -120 64 0
-92 45 -30 0
104 -226 -56 0
20 -77 -221 0
-5 -75 -87 0
-99 -186 94 0
17 -185 -90 0
-93 -203 -162 0
-172 -92 -2 0
151 50 109 0
240 85 87 0
76 -110 -85 0
-118 -46 -81 0
-27 240 113 0
48 72 22 0
237 65 55 0
-167 -19 142 0
13 54 -82 0
-26 50 -4 0
-155 -74 192 0
52 129 200 0
-96 -204 -58 0
82 -239 -14 0
90 139 43 0
214 124 -4 0
-74 85 -1 0
191 147 26 0
-220 211 73 0
-174 201 -60 0
147 178 -210 0
-231 -210 159 0
71 58 27 0
227 -136 82 0
232 -27 81 0
-189 -149 -168 0
219 -52 -6 0
-213 226 -18 0
109 99 -8 0
-117 -215 -184 0
166 9 -194 0
81 -147 148 0
-29 228 -211 0
-148 -239 -228 0
200 -122 83 0
180 -222 -43 0
94 -14 -65 0
-177 -225 240 0
114 -96 -120 0
-165 -177 26 0
210 108 -101 0
12 -71 64 0
-193 -19 21 0
73 -180 -30 0
-91 225 55 0
-109 -131 36 0
101 175 -197 0
-83 98 -153 0
229 171 81 0
-13 3 -200 0
-143 137 -170 0
-18 107 -63 0
-87 -32 -121 0
233 -55 159 0
-142 -222 -107 0
-180 19 -44 0
100 165 -128 0
199 36 166 0
-70 -58 176 0
175 -68 6 0
-111 230 -127 0
149 -53 148 0
112 -90 -175 0
-111 -12 15 0
33 -20 192 0
81 210 107 0
-136 119 -62 0
17 104 92 0
-69 146 60 0
-224 17 -115 0
-29 -14 156 0
18 38 -233 0
54 -51 113 0
-221 -121 195 0
-1 -171 156 0
-26 -88 -3 0
-45 -64 213 0
-204 -8 93 0
-212 -102 -225 0
-102 43 58 0
92 160 218 0
-151 -188 -48 0
-80 -78 -170 0
227 132 -93 0
-209 -34 -82 0
-32 -91 -143 0
-45 33 -219 0
-6 89 -35 0
42 205 -27 0
43 -145 -68 0
-113 -215 145 0
-195 -19 189 0
27 213 170 0
-228 -210 -114 0
131 107 -2 0
52 103 150 0
-132 -191 167 0
158 164 -133 0
-4 235 151 0
19 228 109 0
-191 -87 109 0
193 -224 -108 0
219 -155 124 0
-43 -170 131 0
-112 151 -8 0
178 215 -155 0
121 -210 -111 0
-240 -42 -209 0
-73 79 25 0
40 -218 161 0
-181 218 140 0
121 -236 -164 0
-240 -55 -194 0
-38 69 161 0
-39 -165 -210 0
29 58 62 0
-133 -14 239 0
-95 182 -166 0
2 -204 -154 0
7 212 -137 0
146 71 -155 0
183 -238 90 0
179 96 -214 0
42 79 -169 0
105 41 -49 0
132 -5 158 0
97 208 -148 0
184 -224 18 0
-59 90 -123 0
28 135 167 0
94 -74 -217 0
26 100 -69 0
-12 -169 -11 0
-212 -235 158 0
-43 230 143 0
-141 124 -223 0
137 -12 230 0
-196 239 200 0
9 113 2 0
85 -219 77 0
-201 115 78 0
-85 -156 -40 0
68 17 -66 0
-202 -42 -87 0
199 -192 90 0
-89 130 -98 0
-162 -215 74 0
-49 -72 -4 0
-137 135 87 0
-35 55 145 0
52 -233 228 0
213 239 107 0
-137 120 113 0
162 68 121 0
166 18 101 0
147 1 23 0
-69 44 -21 0
-66 84 -74 0
13 61 128 0
76 46 15 0
131 -17 -147 0
204 29 112 0
-8 113 236 0
-240 -47 -80 0
-161 173 228 0
-216 39 -116 0
-202 -197 -237 0
29 -38 208 0
222 -69 -206 0
-37 -33 -136 0
-167 148 -96 0
-17 14 -102 0
-187 121 53 0
-148 -4 -103 0
-51 -12 -100 0
-190 -52 204 0
197 -191 -109 0
56 98 -217 0
29 98 -78 0
66 -201 -82 0
4 -201 78 0
-191 -49 155 0
149 -75 127 0
-218 169 -57 0
-238 200 30 0
36 -192 178 0
-128 -233 163 0
5 145 52 0
163 -69 -108 0
152 110 188 0
-141 159 -201 0
-111 70 201 0
142 137 -230 0
-137 -51 -238 0
-177 -18 -20 0
35 80 -149 0
-171 -40 -6 0
-47 83 109 0
42 24 -185 0
-142 71 44 0
6 59 53 0
207 61 175 0
199 -124 -60 0
123 170 218 0
-4 46 156 0
235 -48 158 0
205 -228 35 0
12 -40 -208 0
123 -140 29 0
171 180 -166 0
59 1 30 0
22 67 -33 0
10 31 -90 0
-185 118 221 0
-183 166 -104 0
211 -28 39 0
155 97 126 0
-58 180 -156 0
-213 1 -205 0
102 -7 154 0
-198 -78 -23 0
-21 74 -208 0
58 -133 119 0
24 -151 158 0
120 185 67 0
-205 237 -194 0
-94 39 172 0
132 -128 98 0
237 -58 -32 0
-140 15 -103 0
116 -66 46 0
154 -25 -141 0
-204 73 -231 0
-12 180 144 0
-136 -49 230 0
168 -61 -225 0
-100 -62 -18 0
-179 -186 25 0
-89 182 -82 0
154 -75 -67 0
-44 -104 -176 0
-91 177 -52 0
-34 137 -141 0
-170 209 -30 0
208 51 -11 0
-105 -207 229 0
60 26 170 0
-239 4 -78 0
162 -45 -111 0
-119 -233 -35 0
-17 -131 125 0
206 -86 154 0
-132 207 94 0
120 145 4 0
-62 -180 -79 0
-76 236 40 0
-141 -27 3 0
-159 -171 -181 0
199 85 158 0
-163 -70 -4 0
-55 134 -197 0
225 4 124 0
41 199 96 0
152 -174 -181 0
30 -223 217 0
-150 110 27 0
100 119 -29 0
-56 -156 142 0
-135 166 186 0
63 -82 -187 0
36 42 -34 0
-108 -78 143 0
-17 -85 54 0
-109 -100 -99 0
221 -9 153 0
-154 218 -137 0
100 230 6 0
118 59 171 0
228 70 -207 0
133 -83 -208 0
-37 95 14 0
-17 -153 98 0
-151 -27 97 0
-113 -112 194 0
130 -101 49 0
41 -106 -23 0
139 44 -77 0
-177 123 128 0
-11 121 -222 0
-8 -169 -62 0
10 -235 -177 0
5 -240 120 0
-20 65 -53 0
160 154 -3 0
182 52 -150 0
-139 49 128 0
-156 -195 -99 0
-191 39 82 0
235 -79 -151 0
-29 108 76 0
-227 -127 -125 0
-139 101 -16 0
-136 -211 -55 0
83 6 49 0
-200 -86 28 0
-46 -62 124 0
-97 196 -154 0
127 77 -238 0
-169 -110 103 0
63 -237 46 0
-101 -144 -134 0
-150 63 -103 0
-53 -152 -91 0
-219 -182 169 0
-52 116 31 0
180 107 52 0
-234 -239 16 0
115 -11 -125 0
-115 166 -63 0
-75 13 29 0
118 -204 -1 0
5 -39 -164 0
-186 211 -170 0
-52 95 -228 0
125 -166 -210 0
30 46 -23 0
51 92 -18 0
7 -94 119 0
-184 -229 187 0
170 106 132 0
-102 120 -76 0
-112 85 17 0
66 130 -74 0
-238 -217 105 0
99 18 -10 0
202 81 -163 0
-208 -55 -172 0
-108 -185 120 0
180 -211 -25 0
-61 59 -111 0
97 -40 11 0
117 -94 62 0
-28 -114 214 0
235 -153 -225 0
-49 -86 10 0
-212 53 132 0
99 -156 -163 0
193 -240 139 0
-34 161 -72 0
-7 -128 -40 0
-21 -146 -67 0
-65 160 32 0
118 211 -29 0
220 41 136 0
-144 -149 -46 0
-203 -50 21 0
-136 -188 164 0
-49 219 12 0
97 -191 -204 0
173 63 -9 0
79 103 179 0
-167 238 127 0
-166 69 -26 0
237 -136 -231 0
19 -10 -34 0
205 201 85 0
-107 71 118 0
167 230 185 0
33 -222 -72 0
-127 37 -221 0
-179 -69 82 0
107 134 -147 0
52 -141 4 0
56 27 -63 0
-68 -37 238 0
68 33 154 0
82 64 -160 0
-81 -19 -136 0
11 12 -86 0
-117 -35 -69 0
-205 207 195 0
-140 175 -117 0
-83 127 -86 0
-69 -204 228 0
156 -45 -117 0
-113 -229 -71 0
-76 -99 -194 0
126 155 220 0
-10 -171 191 0
-15 117 94 0
-103 -12 -215 0
118 138 73 0
-64 88 219 0
-218 24 -176 0
175 51 196 0
-110 -67 -38 0
220 -187 -230 0
-64 -38 83 0
94 15 -210 0
-96 80 -79 0
164 -198 -172 0
-139 18 -72 0
203 204 -176 0
24 -162 166 0
103 50 183 0
-54 -21 161 0
222 -182 20 0
129 200 -29 0
20 -150 176 0
234 235 229 0
3 -178 193 0
-186 40 -168 0
-155 -170 121 0
-149 -196 34 0
-41 -44 -190 0
59 184 -40 0
61 8 -60 0
151 -75 -150 0
149 -200 93 0
-214 108 -191 0
172 168 -30 0
-120 205 -210 0
95 133 -83 0
197 -168 -72 0
53 -146 92 0
182 -184 -127 0
-20 -179 203 0
-186 169 141 0
73 -35 202 0
-225 111 97 0
183 -63 231 0
215 -68 48 0
138 -90 169 0
-201 73 -28 0
-226 -199 -201 0
-159 166 151 0
-95 -110 154 0
-205 53 59 0
-79 156 -187 0
-50 205 67 0
77 -67 103 0
176 171 125 0
-187 -7 213 0
-133 -138 -73 0
-79 57 224 0
-169 -185 -43 0
190 101 111 0
-173 -9 -19 0
88 108 -164 0
-202 39 -164 0
-65 119 -78 0
228 154 -172 0
-63 90 -164 0
-59 -85 230 0
224 26 -70 0
-38 95 -228 0
-160 -128 -74 0
-164 -63 -88 0
-238 76 -69 0
13 -203 156 0
154 99 -143 0
-38 -211 168 0
96 -62 18 0
58 73 5 0
233 -40 -93 0
-64 3 209 0
51 123 25 0
-194 -99 -128 0
-134 188 -14 0
-42 -161 50 0
-223 78 7 0
-219 127 -9 0
-121 -202 108 0
-226 210 182 0
159 -178 126 0
-10 -97 44 0
150 -204 53 0
185 -224 -181 0
211 98 -232 0
-178 -105 -101 0
235 -155 -180 0
77 -81 40 0
-85 218 127 0
136 143 30 0
-67 -140 -198 0
44 98 -95 0
65 84 17 0
88 -108 85 0
17 81 -163 0
-94 4 189 0
88 -124 -182 0
164 158 -95 0
185 236 106 0
-7 29 83 0
91 154 75 0
166 -167 193 0
-136 -149 -103 0
198 -19 156 0
-71 -27 49 0
71 91 -19 0
210 -218 -206 0
211 97 100 0
-96 -182 -21 0
54 142 -111 0
-232 131 172 0
-90 -154 -71 0
22 -100 -152 0
131 -41 79 0
-122 -59 101 0
136 223 -20 0
106 -153 -216 0
11 -157 -180 0
-154 57 -148 0
207 116 -167 0
50 -196 39 0
-36 -115 -10 0
-229 -186 -188 0
-141 13 -1 0
95 -108 210 0
-116 166 206 0
-127 139 94 0
18 108 -14 0
133 15 129 0
19 166 1 0
44 107 35 0
-44 -2 8 0
-77 -164 39 0
60 184 99 0
9 163 116 0
163 20 200 0
-93 -101 -134 0
12 -117 45 0
231 228 -81 0
191 9 -17 0
-129 203 112 0
-114 -130 -21 0
-192 59 96 0
143 229 -113 0
128 18 105 0
66 98 -170 0
-158 62 223 0
-2 -205 168 0
93 53 -222 0
-175 -179 111 0
-218 109 -179 0
-6 -233 130 0
-240 -107 56 0
89 209 211 0
147 -14 166 0
206 -171 21 0
-17 207 -157 0
-235 -76 111 0
-100 -94 35 0
-239 231 189 0
-37 -151 -86 0
-11 -98 72 0
-116 121 -45 0
-184 -131 203 0
212 -85 -23 0
-153 143 177 0
47 -138 -145 0
24 -54 173 0
131 216 -13 0
109 -169 168 0
196 -73 34 0
194 -61 231 0
-38 -73 -101 0
12 188 224 0
38 -145 -16 0
-163 -211 -199 0
160 102 116 0
61 -215 -230 0
70 170 117 0
-207 -10 -64 0
109 -225 107 0
-138 -196 237 0
118 121 -226 0
3 -155 9 0
-116 11 -103 0
-25 78 -107 0
223 165 -195 0
39 -66 40 0
-41 -239 -212 0
234 -213 217 0
-69 224 35 0
-40 31 -99 0
69 88 -115 0
-88 -4 225 0
-64 206 71 0
-16 150 208 0
-93 -186 -222 0
160 234 -128 0
115 122 -118 0
-166 -69 -50 0
7 -197 12 0
-8 -108 64 0
-61 -23 105 0
216 176 27 0
-7 -125 -87 0
137 101 203 0
-35 153 -182 0
-6 109 47 0
11 -232 102 0
136 -173 -220 0
46 -54 234 0
119 -16 -33 0
-80 136 142 0
-46 -54 22 0
142 -105 157 0
162 161 -156 0
32 182 239 0
128 229 -19 0
177 164 -173 0
211 36 -169 0
-200 -67 239 0
1 -145 154 0
1 -135 137 0
-93 61 -101 0
66 63 -226 0
-112 168 7 0
64 -165 -173 0
201 42 -152 0
5 230 -39 0
-86 223 13 0
-204 63 179 0
39 120 34 0
-17 -124 44 0
-112 63 -192 0
-105 22 97 0
-213 121 -83 0
-205 125 -63 0
-211 -95 -233 0
102 -30 4 0
47 -167 -179 0
-217 -219 109 0
163 -155 203 0
31 -86 -207 0
134 -12 -165 0
-184 -186 -26 0
63 90 156 0
134 234 208 0
-112 28 -141 0
-21 -187 -138 0
-132 -103 -124 0
-140 -235 -90 0
162 136 199 0
45 119 228 0
-95 55 203 0
-166 113 -233 0
173 -162 237 0
-139 -68 163 0
-192 74 27 0
88 203 -71 0
188 61 -111 0
-209 201 94 0
-87 208 -120 0
50 -120 -59 0
-34 139 -52 0
-165 -155 98 0
24 96 88 0
66 160 -89 0
133 -73 91 0
-146 206 89 0
221 116 156 0
-197 -105 -181 0
85 173 32 0
224 73 -49 0
208 -224 195 0
229 126 -153 0
111 -60 -136 0
31 163 72 0
-86 -12 188 0
-54 190 -230 0
-140 90 -206 0
208 -53 16 0
68 -4 158 0
-157 87 -93 0
-24 -201 -113 0
72 50 -223 0
-143 80 84 0
186 196 -235 0
-135 -203 199 0
198 -1 188 0
1 220 -174 0
131 156 -237 0
-156 153 20 0
135 -44 7 0
-213 -222 134 0
196 143 142 0
-120 -43 -185 0
-151 -100 58 0
-151 46 187 0
-147 -218 74 0
-159 192 111 0
61 -163 170 0
-238 -38 -20 0
-1 185 121 0
-101 -91 -114 0
135 -74 -128 0
-78 153 -191 0
-90 13 205 0
-184 -63 228 0
-229 -157 -190 0
-25 182 -234 0
-143 -82 24 0
-226 -88 -227 0
146 90 147 0
88 -1 -199 0
-46 -205 230 0
-48 -101 38 0
31 179 197 0
-6 92 -22 0
-156 224 -122 0
-189 -20 -145 0
37 19 -101 0
161 20 -173 0
-80 -6 59 0
-107 38 43 0
91 139 169 0
235 -117 -134 0
100 2 -132 0
-28 -80 105 0
230 -223 101 0
188 -179 49 0
-92 -150 -221 0
-221 235 6 0
139 240 -170 0
-10 35 132 0
-226 -104 -128 0
-140 -152 -129 0
186 230 150 0
173 -67 84 0
209 69 143 0
-146 229 173 0
99 -35 157 0
-228 -19 49 0
145 -240 147 0
208 180 76 0
-1 -29 51 0
-208 211 -174 0
-25 -123 -91 0
173 65 108 0
-90 221 -45 0
74 60 -198 0
236 26 212 0
-12 -238 -201 0
-120 -61 131 0
-68 -5 41 0
-152 -24 -119 0
-225 -177 -194 0
-86 210 161 0
-227 18 52 0
-173 -59 -115 0
164 204 -133 0
220 121 -129 0
-13 -44 -222 0
-150 184 189 0
85 -178 -219 0
-21 79 82 0
213 45 -189 0
-233 196 144 0
153 -67 216 0
87 -143 -82 0
138 -61 -78 0
-187 191 -181 0
44 164 -95 0
40 45 220 0
56 -111 100 0
234 184 -13 0
157 143 -185 0
-205 -104 18 0
-34 6 -145 0
130 15 48 0
-97 -210 -232 0
-240 105 -225 0
-185 -126 212 0
-24 17 133 0
174 -123 175 0
-180 -195 -170 0
105 -165 111 0
119 221 202 0
-200 89 -140 0
24 -206 -231 0
201 -99 -215 0
-45 -138 130 0
27 15 -211 0
-15 108 -42 0
19 210 -51 0
-165 78 -17 0
214 135 -236 0
