p cnf 360 935
5 3 2 0
2 4 -5 0
-3 1 5 0
-3 -1 -5 0
-1 4 3 0
-4 -5 2 0
4 2 5 0
4 3 5 0
5 -1 -3 0
3 -2 -5 0
-5 -1 4 0
-2 -3 1 0
6 9 8 0
-6 -10 9 0
8 -7 6 0
-7 10 -8 0
-7 -6 10 0
8 -9 -7 0
9 -6 8 0
-7 6 -10 0
6 -10 -8 0
10 9 8 0
6 -10 -7 0
9 -6 -8 0
-13 12 -11 0
12 -15 -11 0
-14 15 11 0
15 11 -13 0
15 13 -11 0
15 12 -13 0
14 11 12 0
-15 11 13 0
-13 11 15 0
-14 12 11 0
-15 -12 -11 0
-14 -12 -11 0
17 -18 -16 0
16 20 -18 0
20 19 16 0
16 -17 18 0
-20 -19 -18 0
-16 -20 17 0
-16 -17 -20 0
17 -19 -18 0
16 -17 18 0
18 -19 17 0
18 19 -16 0
19 20 18 0
-22 25 23 0
-21 24 -23 0
-22 -25 -24 0
22 21 -23 0
25 -23 -21 0
24 -21 25 0
-21 22 -23 0
21 23 24 0
23 -25 24 0
24 22 21 0
24 -22 21 0
21 -25 24 0
-30 -28 -27 0
-28 29 26 0
-28 30 29 0
29 -26 27 0
-26 28 30 0
-29 -27 -28 0
29 30 -28 0
30 -28 29 0
-28 -30 26 0
-27 29 30 0
30 28 -26 0
27 26 30 0
35 31 -33 0
-33 34 31 0
34 35 32 0
-34 31 -35 0
34 -32 31 0
-33 35 31 0
33 34 31 0
-31 -32 33 0
35 -34 -31 0
-31 34 33 0
33 -32 35 0
31 32 -34 0
36 38 -37 0
36 -38 40 0
36 -38 -37 0
-39 36 37 0
-38 -40 -37 0
-40 -39 38 0
-40 -37 39 0
-38 39 36 0
39 -37 -40 0
36 38 39 0
36 38 -37 0
36 40 -37 0
-43 42 -41 0
43 45 -44 0
44 41 43 0
-45 41 -43 0
41 -43 -44 0
-44 45 -42 0
-42 -43 -44 0
44 43 41 0
-42 -45 44 0
43 44 -41 0
-45 -43 42 0
-42 41 44 0
46 -47 50 0
46 50 -49 0
-48 46 -47 0
47 48 -49 0
-49 -48 46 0
-50 -46 -47 0
46 49 47 0
-49 -46 47 0
46 49 50 0
-50 -47 -46 0
50 -49 -48 0
47 -50 49 0
52 55 51 0
-52 51 -53 0
-52 51 53 0
-52 55 -53 0
53 -52 51 0
51 -55 -53 0
-53 -55 51 0
54 52 -53 0
-55 -53 -51 0
51 55 53 0
51 -52 55 0
53 52 51 0
57 60 -58 0
57 60 -58 0
60 -57 -56 0
-60 57 56 0
-56 -58 60 0
-56 60 -59 0
-60 56 -59 0
58 -59 60 0
-58 56 59 0
60 -58 -57 0
-59 58 -57 0
-58 60 56 0
-63 -64 65 0
-63 61 65 0
64 -63 65 0
-63 -65 62 0
63 -64 62 0
63 64 65 0
62 -64 -63 0
61 -64 -65 0
-65 -61 -64 0
-64 -62 65 0
-63 61 -65 0
-62 63 -64 0
68 -70 -69 0
70 67 -66 0
-67 -66 70 0
-66 69 -68 0
-70 66 -67 0
67 -69 -68 0
70 -66 -68 0
-68 -70 -66 0
-67 -70 -66 0
68 -66 -70 0
-66 68 70 0
66 -68 -69 0
-72 -71 -73 0
-73 71 74 0
71 72 75 0
72 -71 -75 0
72 71 75 0
73 74 -75 0
71 -74 -73 0
72 74 -73 0
71 74 -75 0
-73 74 72 0
72 75 73 0
-75 74 -71 0
-80 79 -77 0
77 -79 -76 0
-76 79 -77 0
-80 -76 -79 0
76 78 80 0
79 80 77 0
-76 77 79 0
76 78 -77 0
-79 77 80 0
-77 79 -76 0
-77 79 76 0
-80 -77 -76 0
83 -82 -85 0
82 83 -85 0
-82 84 83 0
-83 -85 -82 0
-81 83 -85 0
-81 84 85 0
-81 -83 -85 0
84 85 82 0
-82 84 -81 0
83 -81 82 0
82 85 -83 0
-81 83 84 0
88 87 -90 0
90 -86 87 0
-86 90 89 0
-89 -87 -86 0
-86 88 -90 0
-90 87 -89 0
-89 88 90 0
-90 -86 -89 0
89 86 -90 0
86 87 88 0
-86 87 90 0
87 90 -89 0
-92 94 -91 0
95 94 -91 0
94 93 95 0
92 -95 94 0
-94 -93 95 0
94 92 -93 0
93 -94 -92 0
93 91 95 0
93 92 -94 0
92 95 94 0
95 -93 -92 0
-92 -91 93 0
-98 -100 96 0
98 -97 -100 0
100 -96 97 0
-99 -96 -100 0
100 -98 -97 0
-96 -98 100 0
-99 96 100 0
99 -97 96 0
-99 97 100 0
99 96 97 0
-98 100 99 0
97 96 -99 0
104 105 -102 0
104 -103 101 0
104 -103 101 0
-102 -103 -105 0
101 103 105 0
101 -105 -103 0
103 -102 104 0
102 105 -103 0
104 -105 -102 0
-101 103 -102 0
-102 -101 103 0
-104 103 101 0
-108 -109 -107 0
-108 110 107 0
-108 110 109 0
109 -106 110 0
-109 106 107 0
-106 107 -109 0
108 -106 -107 0
-110 106 -107 0
110 -106 -107 0
109 -107 -108 0
107 -108 -109 0
-110 109 108 0
115 112 -111 0
114 -112 113 0
115 -113 114 0
-112 -114 -113 0
-114 113 -111 0
112 111 -115 0
115 114 -113 0
-115 113 111 0
-114 113 111 0
113 115 -112 0
111 -114 -115 0
-113 115 -112 0
-119 -117 116 0
119 116 117 0
-116 -119 -118 0
118 117 119 0
-120 118 -117 0
-118 120 -116 0
-117 -118 116 0
-119 -120 118 0
-118 -117 116 0
119 117 118 0
119 -116 118 0
-117 118 119 0
124 -125 -122 0
122 124 123 0
-124 121 -125 0
-125 124 -121 0
-125 124 121 0
125 124 121 0
125 -123 -124 0
124 121 125 0
124 125 -122 0
-125 -122 121 0
122 -123 -125 0
125 124 122 0
127 129 126 0
127 -129 -128 0
128 129 127 0
-129 -130 -127 0
-126 -128 127 0
126 -128 129 0
129 -128 -130 0
130 -129 127 0
126 127 128 0
127 -129 126 0
127 126 -129 0
129 128 126 0
135 131 134 0
-134 132 -133 0
-132 133 -134 0
133 132 135 0
-132 -134 -135 0
-132 134 -135 0
-132 -134 -131 0
-135 133 132 0
-133 -131 134 0
-135 134 -131 0
-133 135 -132 0
-133 -131 132 0
-138 -136 -137 0
139 140 138 0
-140 138 -137 0
-137 136 -139 0
140 138 136 0
-138 140 139 0
136 137 139 0
140 138 139 0
138 137 -140 0
137 136 138 0
-136 -139 137 0
-137 -139 136 0
144 141 -143 0
-145 -141 -143 0
145 143 144 0
145 -142 141 0
144 143 142 0
144 143 -141 0
144 -143 -145 0
144 143 -142 0
145 -142 -144 0
-142 143 -145 0
-145 142 143 0
144 142 -145 0
-148 146 150 0
-148 147 -149 0
147 -150 -149 0
150 -146 147 0
-150 147 -148 0
-146 150 149 0
-149 150 146 0
149 147 -146 0
147 -150 -146 0
147 146 -148 0
148 -149 150 0
148 146 147 0
154 -152 -155 0
-153 152 154 0
152 -155 -154 0
-152 -154 155 0
154 153 151 0
152 -155 -153 0
153 -151 155 0
154 153 -151 0
152 -154 -151 0
-152 -155 151 0
154 -155 -151 0
-155 151 -154 0
157 -158 -156 0
156 -157 -158 0
157 156 158 0
156 -157 -158 0
-160 159 -158 0
-159 158 157 0
160 -157 -159 0
-156 158 -160 0
-156 -158 157 0
159 -157 -158 0
158 159 -156 0
160 159 157 0
165 161 163 0
161 164 162 0
-163 164 -161 0
164 -162 -163 0
163 -162 164 0
161 -164 165 0
164 165 162 0
162 -165 161 0
-165 -162 161 0
-161 165 163 0
-161 162 165 0
164 -165 163 0
-169 170 167 0
-170 167 -169 0
166 168 169 0
170 166 167 0
-168 -167 169 0
-166 170 168 0
166 -170 -169 0
-166 -169 -167 0
166 -170 -169 0
-167 -170 -166 0
-169 -170 -168 0
167 170 -168 0
-172 -175 171 0
-175 -171 174 0
174 175 172 0
174 173 172 0
-175 173 -172 0
-173 174 171 0
175 171 174 0
-174 173 171 0
172 -173 175 0
173 171 -175 0
173 171 -175 0
-171 -175 -172 0
180 177 178 0
177 -179 -178 0
-178 180 179 0
177 179 178 0
180 179 -177 0
-178 -180 -177 0
177 -178 -176 0
177 -178 180 0
177 -176 -180 0
180 -177 179 0
-178 -176 -179 0
-180 -179 178 0
-185 -181 183 0
182 -181 185 0
181 -183 -182 0
-181 -185 -184 0
181 -185 -184 0
-181 -183 182 0
-181 183 -184 0
181 -182 183 0
181 184 -183 0
-185 -181 -183 0
183 181 184 0
-185 -184 183 0
-190 -188 -189 0
-186 188 187 0
186 -189 -187 0
189 190 -187 0
-189 -190 -188 0
-188 189 187 0
-190 186 -187 0
190 -186 188 0
188 187 186 0
188 186 -187 0
187 189 -190 0
189 187 190 0
-192 194 -193 0
-194 -191 192 0
-195 194 191 0
-194 -195 192 0
-194 191 192 0
-195 191 -192 0
195 194 -193 0
195 191 192 0
-194 -195 -193 0
-194 -193 191 0
-192 191 193 0
-194 -192 -195 0
-196 199 197 0
-198 196 -199 0
-198 -196 200 0
-198 199 197 0
198 197 199 0
197 198 -199 0
-197 200 -199 0
200 198 -197 0
-200 199 198 0
200 -197 -196 0
-197 199 -196 0
-198 -196 -199 0
-203 204 -201 0
202 205 -204 0
205 204 201 0
204 201 -203 0
-203 -205 -204 0
205 -203 201 0
-203 -205 204 0
203 205 -202 0
204 205 203 0
-205 201 204 0
202 -201 -204 0
204 -201 -205 0
-207 -210 -208 0
-206 207 -209 0
-206 209 207 0
-209 206 -208 0
-206 -208 209 0
-208 209 207 0
-208 -206 -209 0
207 -206 -208 0
-209 -207 208 0
-206 -207 -209 0
210 -207 208 0
210 -209 206 0
-215 -211 -212 0
-213 -215 214 0
-214 212 211 0
-213 -211 215 0
215 213 211 0
214 -215 212 0
212 213 -214 0
212 -214 -211 0
-215 -214 -212 0
-215 211 -213 0
215 -214 212 0
-215 214 211 0
219 220 -216 0
-218 217 -220 0
220 -217 216 0
216 -218 -217 0
-220 -216 -218 0
-216 -219 -217 0
219 -218 -220 0
220 -217 -218 0
-220 216 -219 0
219 -218 216 0
217 220 219 0
217 -216 -219 0
224 -223 -222 0
225 224 223 0
224 225 -222 0
-221 -225 -224 0
-221 -224 -225 0
-225 -224 -222 0
-225 -224 223 0
-224 222 221 0
-221 223 -222 0
224 223 222 0
222 223 -225 0
224 -221 225 0
-229 -230 228 0
227 230 -229 0
-227 -226 -228 0
-228 227 -229 0
229 -230 -228 0
226 -228 230 0
227 -226 -229 0
-227 -229 -226 0
-227 -230 228 0
230 228 -227 0
-230 -228 -226 0
226 227 -228 0
232 234 -233 0
-235 233 -232 0
-235 231 -232 0
235 233 231 0
234 -232 233 0
234 -232 -233 0
-234 232 233 0
231 -234 -232 0
235 -234 -231 0
232 -234 -235 0
232 233 -234 0
231 233 235 0
-240 -239 236 0
-237 -239 238 0
236 -237 -238 0
-240 -237 -238 0
-240 -239 -237 0
237 236 -240 0
-236 238 240 0
-240 237 239 0
-236 -238 240 0
236 240 -239 0
239 238 -240 0
236 -238 239 0
-241 242 244 0
242 241 244 0
244 -241 245 0
-243 242 -241 0
-243 -241 245 0
243 -244 241 0
-245 241 244 0
245 243 -241 0
-244 -242 -241 0
-242 -245 244 0
-244 245 243 0
242 -241 -243 0
-246 247 -250 0
-248 -247 246 0
-247 -248 -246 0
-246 247 -250 0
-249 -247 -248 0
250 249 -248 0
-246 -249 -248 0
-248 247 250 0
250 -247 -248 0
246 247 248 0
-249 247 248 0
-246 247 250 0
251 -252 -254 0
251 -254 255 0
254 253 251 0
-255 -253 -254 0
-252 254 253 0
251 252 -253 0
-254 -252 255 0
254 -255 -251 0
253 254 -255 0
251 -254 -252 0
-255 251 254 0
255 253 254 0
-256 -259 257 0
259 -256 -260 0
-260 258 -256 0
-256 260 -257 0
259 -256 -257 0
-257 256 -260 0
-257 -256 260 0
258 257 -259 0
-257 260 256 0
-258 256 259 0
-259 257 258 0
-258 256 -259 0
265 261 263 0
261 265 -262 0
-264 262 -261 0
-261 -265 -263 0
264 -263 -262 0
-262 265 261 0
262 264 -265 0
261 -264 -265 0
263 265 -262 0
-264 -262 -263 0
-264 262 263 0
-265 261 262 0
-269 -268 270 0
270 268 269 0
270 -268 267 0
266 -269 267 0
-267 269 -270 0
269 270 267 0
-270 -266 -267 0
-266 -267 -269 0
270 -269 -266 0
270 269 -267 0
266 -269 -267 0
-267 270 268 0
-274 273 272 0
271 273 -272 0
-274 -275 273 0
-274 273 275 0
273 -272 275 0
274 273 -272 0
-274 -275 -272 0
273 -271 -275 0
-274 275 -273 0
272 275 -273 0
-273 -272 271 0
-271 -272 -273 0
-276 -280 277 0
-280 278 277 0
-278 -276 277 0
-279 -277 -276 0
280 -277 -279 0
-276 -278 -279 0
277 -280 279 0
280 -279 276 0
277 279 280 0
277 -280 -278 0
-276 -280 -277 0
279 277 -278 0
-281 284 -285 0
283 -281 284 0
283 -281 285 0
-284 283 -281 0
-285 -284 -283 0
-284 285 283 0
-285 -283 281 0
281 282 283 0
284 282 285 0
281 282 284 0
-282 281 -283 0
284 285 -281 0
-290 287 -289 0
288 -290 287 0
287 290 -288 0
-288 290 286 0
290 286 288 0
-286 290 287 0
288 286 -290 0
287 -286 288 0
288 -287 289 0
-289 -286 -287 0
289 -287 286 0
-290 289 -286 0
-291 294 -293 0
292 -294 -295 0
293 292 -294 0
-294 -292 -295 0
292 -291 -295 0
-291 -292 294 0
-294 293 295 0
-291 -293 295 0
295 292 -293 0
295 -294 -293 0
-292 291 -295 0
-295 -291 -292 0
-300 296 297 0
-300 297 -299 0
298 -296 -300 0
-300 297 -296 0
-297 299 296 0
296 299 298 0
300 298 -297 0
297 -300 299 0
297 300 -296 0
299 -296 298 0
-300 -298 297 0
299 298 296 0
-303 305 -304 0
-302 305 -301 0
-301 304 303 0
-302 -303 -305 0
-303 -304 -301 0
-305 -301 304 0
304 301 -303 0
305 -303 301 0
-301 304 303 0
303 -301 302 0
-304 305 301 0
302 -304 303 0
-309 -310 308 0
-309 -308 307 0
-307 310 -309 0
310 306 309 0
-307 309 308 0
-306 307 309 0
308 -307 -310 0
307 -309 308 0
-307 309 -308 0
307 310 -308 0
309 -306 -310 0
-309 -308 310 0
315 314 -313 0
-313 315 311 0
-311 -315 -312 0
311 315 312 0
-312 -313 -314 0
312 314 315 0
312 -314 -315 0
311 -312 -314 0
-312 -313 311 0
-314 -311 313 0
315 311 -313 0
-313 -311 -315 0
320 316 -318 0
319 -316 317 0
-320 316 -318 0
-317 -318 319 0
-317 318 -319 0
317 318 -320 0
-320 317 -316 0
-316 318 319 0
320 -319 316 0
-319 317 -320 0
317 -319 -320 0
316 -320 319 0
-321 324 323 0
-323 -321 325 0
-323 -325 -324 0
-322 323 -324 0
323 -325 324 0
-324 -321 325 0
-325 -322 323 0
-322 325 -323 0
-324 325 -321 0
325 323 -322 0
321 322 -325 0
-325 323 -321 0
328 329 327 0
326 330 328 0
-328 -330 327 0
-328 327 329 0
-328 -330 326 0
328 -330 -327 0
-326 -327 -328 0
-327 326 330 0
328 326 -327 0
-328 -326 -330 0
-330 327 -329 0
-327 -329 328 0
-334 335 333 0
334 -335 333 0
-335 331 333 0
331 332 -333 0
-333 -335 331 0
332 333 -331 0
333 331 -334 0
-331 -335 332 0
-333 -331 -332 0
-331 -335 -334 0
333 331 332 0
332 -335 -333 0
-338 337 -339 0
337 338 -339 0
-337 340 336 0
-339 -337 -340 0
-336 -337 338 0
-337 -336 -339 0
336 340 -338 0
-337 336 -340 0
-338 -336 340 0
-338 -337 -339 0
-336 -337 339 0
-337 -336 -339 0
344 341 345 0
-341 344 345 0
-341 -344 345 0
-343 341 342 0
-342 341 -345 0
342 344 -345 0
344 -343 341 0
-342 345 341 0
344 -341 342 0
-343 344 341 0
-343 344 345 0
342 344 343 0
350 347 349 0
350 -349 347 0
346 -349 -350 0
349 348 -350 0
-348 349 346 0
349 -347 346 0
-347 -349 -348 0
-349 346 -348 0
-350 347 349 0
-350 -346 -349 0
349 346 347 0
-347 346 -349 0
352 355 -354 0
-352 354 -355 0
-352 -354 353 0
351 -353 352 0
352 -353 351 0
352 -355 -353 0
352 355 353 0
351 -352 -354 0
352 -354 -351 0
355 -351 352 0
354 -353 -355 0
-351 -355 -354 0
360 -357 356 0
-359 357 356 0
356 -358 357 0
-359 358 356 0
357 -360 356 0
-357 -358 356 0
359 -360 356 0
-359 -360 357 0
-356 -360 359 0
-359 -356 360 0
359 356 357 0
-358 -360 -357 0
1 -6 0
6 -11 0
11 -16 0
16 -21 0
21 -26 0
26 -31 0
31 -36 0
36 -41 0
41 -46 0
46 -51 0
51 -56 0
56 -61 0
61 -66 0
66 -71 0
71 -76 0
76 -81 0
81 -86 0
86 -91 0
91 -96 0
96 -101 0
101 -106 0
106 -111 0
111 -116 0
116 -121 0
121 -126 0
126 -131 0
131 -136 0
136 -141 0
141 -146 0
146 -151 0
151 -156 0
156 -161 0
161 -166 0
166 -171 0
171 -176 0
176 -181 0
181 -186 0
186 -191 0
191 -196 0
196 -201 0
201 -206 0
206 -211 0
211 -216 0
216 -221 0
221 -226 0
226 -231 0
231 -236 0
236 -241 0
241 -246 0
246 -251 0
251 -256 0
256 -261 0
261 -266 0
266 -271 0
271 -276 0
276 -281 0
281 -286 0
286 -291 0
291 -296 0
296 -301 0
301 -306 0
306 -311 0
311 -316 0
316 -321 0
321 -326 0
326 -331 0
331 -336 0
336 -341 0
341 -346 0
346 -351 0
351 -356 0
