p cnf 10000 50000
-142 2401 -5943 0
-3172 8335 -9595 0
-8444 -3190 -7422 0
-9683 5775 -3380 0
-9336 6209 -8862 0
-400 -2108 8553 0
-6823 9271 -9819 0
4938 3585 -4313 0
-6864 -7221 -3123 0
2777 1349 9215 0
2730 228 -723 0
-6614 -5309 7144 0
4602 5693 -6669 0
524 7460 5224 0
4198 4880 1263 0
446 7527 4430 0
-6409 9672 3424 0
-1435 -5231 956 0
-4392 7942 -2466 0
-1248 -4273 3435 0
-5481 -9954 -900 0
-8643 1781 4064 0
5761 -2754 1775 0
-4892 -5337 522 0
3300 7671 -4310 0
7238 4112 1498 0
-7371 8872 -9463 0
2368 -7149 4313 0
-5556 1430 5415 0
1017 -8773 207 0
4821 -9365 -2956 0
1600 -9695 5857 0
9808 -6264 1619 0
-5973 5370 -3519 0
372 7866 2381 0
817 8380 -1 0
8790 1267 446 0
5342 -7317 -9184 0
-9354 9310 -6933 0
-5991 6665 5158 0
8727 -9488 -948 0
4264 9856 -488 0
-6008 -8159 8659 0
1487 7697 -4756 0
9634 -3454 7529 0
-6097 -2084 8732 0
8484 -515 2548 0
-8432 -8924 5602 0
6130 4563 -6778 0
6894 9016 2062 0
5693 -1844 -470 0
2620 -4136 -3790 0
7843 -5880 4548 0
-3038 7250 -7421 0
-5225 -2158 -8693 0
-2621 904 -2871 0
6401 4513 -9307 0
-303 7451 2263 0
2463 -8084 8360 0
1730 7484 7799 0
-3399 5889 9315 0
-88 8911 9051 0
-231 1716 8929 0
-3115 9535 -4187 0
-9092 -8726 4581 0
792 -5153 8369 0
8442 -7933 2023 0
-4341 5153 6229 0
-8058 -5461 -5662 0
5693 -8776 -2946 0
4842 -918 -3472 0
6390 5728 -1437 0
-8731 1325 -2651 0
659 -7783 2535 0
-7946 5298 515 0
7445 -8659 -6885 0
-2828 -882 -6214 0
7014 5231 -6692 0
4808 -9445 2442 0
1907 3651 -6366 0
-4507 -1811 -4316 0
4894 -7124 -4431 0
-8053 2408 1557 0
7910 -3202 -730 0
-3 9098 2438 0
1115 -3094 5831 0
-2420 -7171 -151 0
836 -2898 3612 0
1413 -8553 9260 0
3185 421 -3433 0
3109 -8082 1812 0
493 -7850 1756 0
8458 3558 -7157 0
6703 330 -8120 0
-7164 6340 8479 0
4927 -2987 4534 0
-304 2792 6548 0
-4545 -9932 -8277 0
5447 -8703 -474 0
7848 -133 417 0
2642 2886 -228 0
1585 5129 8452 0
-2173 6626 6723 0
1996 4876 9260 0
-6178 867 -6912 0
-64 8523 5984 0
5008 7149 -677 0
5177 -8501 -8888 0
-7286 3679 -6269 0
6713 474 9261 0
7757 9576 -7380 0
7415 2731 9056 0
-4636 -5010 6574 0
-8647 -6739 6006 0
4174 -9184 -9389 0
-3987 -7714 9897 0
647 397 -8370 0
-6935 4346 -3235 0
6968 -3688 -939 0
-6453 -8652 -5635 0
-2622 6950 2417 0
7998 6146 -9109 0
8186 -1125 7188 0
4876 -2253 8514 0
7322 -3602 4971 0
-438 6166 -8307 0
8683 1452 -2589 0
-7153 -1859 -164 0
-5306 3531 -53 0
2571 -7211 -157 0
-3983 7639 -8574 0
5522 6611 1873 0
-2092 -9877 9841 0
3195 -7547 9800 0
-2201 -1724 2998 0
7849 -2532 -7515 0
-2022 -511 4478 0
-9824 -1456 8874 0
-3609 9406 8135 0
-1337 1694 -1147 0
-9414 -8298 1569 0
9677 -9134 -9974 0
-3222 -9494 -8891 0
4197 1568 7392 0
-8693 4150 3888 0
-5415 -3517 -7471 0
-2181 8357 -4927 0
6737 1606 -8628 0
4609 8990 -5625 0
-3477 -2303 9604 0
-9806 -7543 -3737 0
-4567 6364 9830 0
-9733 7263 -5471 0
3559 -3797 -7852 0
6631 -8489 6864 0
-6925 -2295 -4643 0
9382 -1644 7088 0
1105 933 8237 0
9241 -954 6681 0
-6786 -2488 -5306 0
6640 -6462 2016 0
-7720 7806 -396 0
5910 2668 -3044 0
555 3603 7386 0
8091 3171 -9386 0
-3853 -9355 3311 0
1802 5662 -1920 0
1952 -4045 9810 0
871 -8285 -1123 0
-1667 4402 5944 0
859 -313 -3303 0
-2230 5903 3423 0
8502 8884 -7592 0
-6114 -794 6038 0
6216 6852 2775 0
-3316 6784 3047 0
7120 974 -6682 0
-3866 4838 -6887 0
-5667 3346 6399 0
5325 -8302 4516 0
-3081 3824 -1249 0
-4742 -9328 -9011 0
1516 245 -9893 0
5831 9583 1126 0
-1053 -667 2262 0
-4282 -6606 9788 0
9419 1582 -9352 0
-9965 -8250 7906 0
-6940 5837 9514 0
3527 -3281 2927 0
361 -3140 1182 0
8498 -5908 2476 0
-5845 1602 -2373 0
9122 2045 8279 0
-7580 -3073 -6550 0
6275 1287 -4388 0
6550 6700 3598 0
508 4295 7921 0
-3757 3595 8214 0
2937 -2332 -2154 0
-1880 5276 -2627 0
-7906 2461 1318 0
-3719 3659 -4082 0
-8435 9339 4071 0
3510 8467 -3797 0
4471 -1121 -2492 0
950 -8682 7850 0
3637 -9818 -6232 0
-3884 5591 9133 0
4934 86 -2705 0
-9322 171 5694 0
-8162 -7913 9731 0
-5641 6451 -351 0
-6253 -6679 -7208 0
-7729 2518 -6364 0
-1503 9820 -8838 0
-3671 1339 3276 0
9495 -4008 -9507 0
-5893 -3878 6112 0
-6188 -1975 840 0
8781 7897 4664 0
3188 4957 1972 0
2156 -7026 -1951 0
-8461 -7657 -3494 0
5171 -7413 233 0
-8691 3615 2112 0
1675 396 3373 0
-7596 7025 2547 0
6127 -1625 6321 0
2234 4155 -2752 0
3972 -7748 -1918 0
-7202 -6614 3089 0
1003 5020 8751 0
4006 -7813 1359 0
8624 -5721 8511 0
-4888 4122 7006 0
-6384 -545 -6889 0
-4293 494 -2836 0
5672 -7156 6475 0
4497 2778 -4182 0
205 1848 8552 0
6889 8695 9073 0
8352 -2775 8112 0
-9552 -7897 383 0
5295 8552 -4532 0
-5779 -9837 7395 0
-2979 7177 7767 0
2333 -1106 2148 0
849 -2082 1042 0
5246 8536 -813 0
-2847 -3962 -9409 0
-9131 -1295 -589 0
-6319 -3763 1219 0
-116 5108 1487 0
2630 5425 4872 0
8839 5744 5608 0
-7384 2671 -6222 0
-9343 -6386 4445 0
-2507 1933 -9373 0
-4805 4433 -2668 0
6281 4959 1941 0
206 5899 2178 0
-7143 9811 -4961 0
5864 6701 3188 0
-5113 9526 -9657 0
8225 2539 -3677 0
237 -2939 2499 0
-7600 9591 1402 0
-7287 -2807 -3156 0
5140 -1752 7149 0
9893 -4444 9142 0
1664 8398 -5293 0
1666 8090 -3387 0
-4940 5783 -3387 0
-1381 3602 3392 0
9567 1935 -6556 0
7266 -9698 8944 0
-9458 -1402 -1414 0
-1337 634 -8585 0
-4525 9571 8786 0
-9912 -2034 3302 0
3507 1291 -2528 0
1612 5791 -1487 0
2012 -3530 -6708 0
8708 1002 420 0
-7692 -3586 -9331 0
8389 -9024 -1717 0
6326 -261 -6403 0
3640 -3087 -9437 0
4868 1333 -5311 0
781 8708 -1908 0
-5346 -4197 1568 0
-4512 9014 2824 0
7632 6239 6228 0
-449 2202 9416 0
-1082 8369 -6466 0
-3508 8472 -2212 0
8396 1109 1157 0
-9828 9732 5983 0
9339 9519 -7657 0
2674 6340 2406 0
-2723 -2345 9149 0
6049 -434 -8558 0
8671 8207 -5351 0
2998 4806 7786 0
7064 -5987 1790 0
-5942 5237 2770 0
4313 -3124 -2071 0
-4130 5458 3975 0
7129 4367 -3468 0
-8876 -2593 5451 0
7578 -2567 -8751 0
-7416 4116 2138 0
-8525 -126 -1346 0
-3588 -9177 6810 0
5689 4920 -2141 0
4986 7734 -45 0
628 4381 3960 0
-8363 3756 -256 0
-764 -6444 -3757 0
-7614 3305 -7992 0
-7668 -6579 -415 0
3655 4283 7364 0
-4305 6429 6022 0
-716 4822 8774 0
-3672 9681 4961 0
-7252 6109 2590 0
-6129 -9116 -7037 0
-7275 -2912 -2163 0
-8935 1908 -9666 0
-8394 6471 -501 0
-7835 -1390 -3362 0
-5910 -3270 8053 0
940 4385 -3344 0
8043 -4190 6422 0
8054 -2341 -3785 0
8772 -9191 -4158 0
277 8370 -6505 0
5125 562 8129 0
7767 -6430 -6608 0
-2123 9807 -349 0
2459 3820 1642 0
-171 5891 -3803 0
-7463 9305 3922 0
-6317 644 2480 0
8825 -9710 -7220 0
3813 -5042 6208 0
5506 5871 -2278 0
-6045 5651 7249 0
4238 1010 -2823 0
-9901 7368 3644 0
825 -58 -9323 0
8777 4300 3501 0
-8223 -1808 5854 0
8291 7239 5669 0
-9742 5197 -3212 0
48 1572 -1474 0
-9370 -9489 -9897 0
7735 -7192 -7404 0
-5215 727 3797 0
-4412 -5455 7841 0
4724 -7464 3073 0
-7664 -1486 8780 0
-5489 -8234 -9909 0
-5461 4697 2406 0
6918 -1825 -3379 0
4725 -3109 -707 0
-9915 2192 -6182 0
9324 -4357 -1301 0
4598 167 1095 0
-6070 1716 2763 0
8209 -7527 -2085 0
4131 8108 4593 0
8799 -4578 -4365 0
6541 1738 9317 0
6922 7856 -2548 0
3926 3409 2324 0
-220 -6776 -8842 0
4247 -3071 -1963 0
-8389 -3492 3471 0
3742 3091 -3434 0
-2644 6181 204 0
-2213 1721 5036 0
-1728 -5579 -4461 0
-5655 -4709 -741 0
-6597 -9336 -4987 0
5317 -6223 277 0
715 440 7694 0
-1443 -4465 6528 0
-5870 1703 -6077 0
944 -400 4702 0
-9712 1866 6016 0
1876 7248 7036 0
-5572 -2524 8401 0
4509 5309 -5227 0
9105 1592 1806 0
1374 -5731 8475 0
198 2368 -6690 0
3315 -3780 -4337 0
-8906 9811 7862 0
6505 -7605 -2889 0
7750 5204 -7893 0
3084 2458 520 0
-7459 -2358 -1582 0
-6704 -6766 -815 0
-8830 -1321 8915 0
5795 -5024 8419 0
-557 -854 -5041 0
-8089 8719 1533 0
-3872 -4860 -6763 0
6525 -147 530 0
-6477 6113 -769 0
1511 7132 -3243 0
7168 9496 -3213 0
6351 -6156 -1314 0
-7287 -2536 7713 0
-3905 4580 -4050 0
5217 87 7287 0
-9580 5981 -8895 0
-7123 5819 -8625 0
-6982 1937 8719 0
5291 6117 -9403 0
-2035 -241 -7094 0
-5240 -992 -8320 0
-8743 -9657 7574 0
7671 4783 5172 0
-1894 -9798 7116 0
-52 5225 1343 0
-9662 8879 9087 0
-3103 -427 4077 0
-8738 -3204 -7315 0
7011 -7017 -4313 0
8060 -8040 -6328 0
7251 3513 8510 0
-7704 6285 -7712 0
3814 9084 6234 0
3569 -189 3261 0
7474 5913 8538 0
8150 -6917 3347 0
-4327 6058 -3343 0
2558 -7138 -1171 0
3866 -7801 2010 0
6567 382 -6235 0
-2074 -4456 4799 0
3838 3170 9702 0
-2312 1082 -5772 0
46 -6419 8164 0
7025 1986 -9430 0
7773 -8391 8329 0
-4898 -6298 7856 0
2296 -2199 9850 0
-8801 8219 4571 0
-3131 -2381 -5376 0
1176 4765 333 0
-1978 -6159 -122 0
-5369 -186 -4729 0
-3946 -6521 -7817 0
-6521 5524 -2225 0
-5325 -13 -9836 0
836 -1577 8698 0
-7559 4905 -8420 0
3205 -7545 5699 0
-3356 3125 -6375 0
5535 -67 9800 0
-2818 -1014 6270 0
6711 6825 -7266 0
3296 6615 1776 0
-1498 -6701 2386 0
-4161 -4952 1884 0
6824 6921 -4920 0
-8214 -312 -4954 0
-7214 7723 4896 0
1275 -5589 -4290 0
7466 2718 2737 0
-2652 4798 -190 0
2184 3771 -3163 0
3245 7155 -8692 0
-6752 3446 -5782 0
9640 5784 7979 0
7593 9654 -9741 0
5566 766 -3919 0
-1470 -6832 -1816 0
-56 -6452 -4431 0
-8129 2362 5502 0
-8798 1168 -9292 0
-9457 8411 7986 0
-9406 1854 -4087 0
9657 -5286 -3524 0
-3368 -9543 -6637 0
4196 -7237 -1601 0
955 5550 6298 0
-7742 3863 -6611 0
-8020 -2884 9025 0
-179 -428 -2013 0
-3243 -6489 -1708 0
3414 -3640 -7334 0
-237 5212 8632 0
-245 -1526 -7733 0
-9404 -8288 1851 0
4606 6194 -7439 0
-6926 -5664 7900 0
-7400 8111 -8800 0
3601 3967 -7485 0
-8239 7535 5447 0
-5404 -7757 7749 0
-8416 -668 898 0
1697 1648 -4596 0
62 282 5938 0
-6844 1876 3931 0
-5691 1112 8474 0
7568 -5562 8182 0
3180 -3870 -8742 0
-7544 -8483 1705 0
-9620 -9882 -9050 0
-4876 596 -2243 0
-9720 -5995 916 0
-3251 -8512 6909 0
9412 -670 -2717 0
-9680 333 -1125 0
-5655 8230 -3787 0
1268 1135 6739 0
-9545 -5931 -9419 0
3278 8389 -4879 0
5080 2876 -3978 0
2886 -339 569 0
-5156 -9287 -5420 0
7236 -6691 -3195 0
6709 -2084 8533 0
-2965 -4240 -5618 0
-6760 2038 -2928 0
7538 288 -1453 0
-6288 6855 9160 0
-2528 -9275 249 0
1828 -9669 -1667 0
9399 -1632 6 0
6821 2419 8834 0
1884 6217 9733 0
2712 5803 -5821 0
-7293 -3357 8247 0
6838 5748 2907 0
-5820 4628 -4842 0
-9762 -1550 3376 0
6884 6584 6188 0
-6287 -7983 -5138 0
2305 5961 -4951 0
741 -2957 -4740 0
-5694 -1976 7608 0
8907 -7021 866 0
9512 3546 -7368 0
-9757 -6742 -7660 0
1112 1263 -7587 0
-4817 -346 9977 0
5458 56 5072 0
-8206 7764 -3740 0
-9344 58 6372 0
-8551 3143 2172 0
5043 -1886 4404 0
8896 2757 -305 0
1177 -5100 414 0
-9958 -2411 8604 0
3930 -5247 -5450 0
-1772 1325 7664 0
-2343 4273 -1773 0
-9399 978 -7079 0
6490 -1548 3475 0
25 -8338 4825 0
8738 3601 -8197 0
-8077 -1085 4111 0
5384 -5435 6538 0
-2117 3453 -6165 0
-3400 -7581 -8340 0
-7489 -750 -6943 0
-4418 8614 6976 0
-1618 9515 6812 0
-4708 -3811 -5457 0
-4549 -704 -1810 0
4871 8136 9143 0
-5353 6171 2522 0
-6284 -9913 -5600 0
-640 -1590 -8653 0
649 -9012 -6600 0
-6412 -8205 -7356 0
-2465 -7273 -3191 0
-4563 4520 -3571 0
721 2804 2607 0
-1358 -4697 7743 0
8490 9769 -8088 0
-5960 6829 -8754 0
5824 3856 6003 0
3464 -5484 -203 0
-4867 -2141 -8712 0
-3605 5926 8327 0
6094 5595 2552 0
-2607 5 -4979 0
-4449 -7109 8996 0
1025 -8780 -300 0
2197 -4245 1250 0
-1115 6075 -5144 0
7609 4499 -4287 0
4520 9811 9362 0
6034 -232 5786 0
-967 2957 -5466 0
-6255 -8837 -7439 0
-9046 -4272 -2042 0
-1793 9534 6658 0
-6585 1740 -2476 0
4623 -6705 -9337 0
-2913 -2662 830 0
1455 -3086 1068 0
1491 -2471 -5167 0
7054 -679 -4264 0
3869 8266 4668 0
-4562 2077 8491 0
-838 2462 -2676 0
-537 -9436 5961 0
7933 -3244 4457 0
-3341 -9095 5282 0
8698 9250 8012 0
4893 8567 -2828 0
9251 7011 -9497 0
-4808 9396 -907 0
5739 1050 1437 0
-6691 3399 8353 0
4623 -6609 -8857 0
5966 -8082 -5356 0
733 3021 6233 0
-2977 -5690 8696 0
-3194 2782 6119 0
-366 4785 -2271 0
-7393 -5232 -9923 0
1882 -366 -882 0
-3487 4799 2601 0
2993 8078 -3333 0
-7265 8197 -4360 0
-6139 -5571 -4358 0
2061 1424 -1635 0
-8862 -5583 1174 0
4247 1382 426 0
-7640 8023 -6492 0
-4271 -5892 -3310 0
-7450 -7297 -3451 0
-2489 4489 -8123 0
48 -1713 2111 0
7569 629 5844 0
-6539 7079 8225 0
-7661 805 8577 0
-8206 -3713 -9382 0
-5152 -9749 -121 0
9674 5861 838 0
-2176 8227 -3405 0
6522 2978 994 0
-8357 -9260 5664 0
-5081 -8504 -6158 0
1861 8343 2188 0
-463 3729 -6636 0
-4637 -6740 2825 0
-9215 -1912 -3010 0
-6466 -2163 -1174 0
-7168 -1566 1531 0
-6047 -6099 2973 0
9292 2768 7222 0
-5845 -5521 -4395 0
5103 5964 -8456 0
-3882 -8469 1310 0
-432 -4525 -4945 0
2166 -9823 -8847 0
-8292 7338 3252 0
-3010 -1561 9569 0
9072 -6600 1421 0
-4397 -3535 -4071 0
7062 -6949 -5855 0
9041 7045 -5282 0
-499 -1057 -5210 0
7408 -9561 -5017 0
289 3942 7924 0
6787 2143 -8409 0
-2813 -9427 9391 0
2010 -4201 -1107 0
9839 1697 -5573 0
6199 2533 -9730 0
-3781 3817 -1514 0
-4748 7515 -7634 0
6193 -4596 -9407 0
-8947 4027 3662 0
7985 7956 7038 0
-4115 -9012 550 0
-136 -9405 -3019 0
5910 -1805 2332 0
-3264 3418 7287 0
8395 3403 5744 0
1967 -2001 6616 0
-1642 -1378 -4991 0
-7081 -3591 7091 0
-2029 -5351 -208 0
-491 197 -4037 0
-7458 8642 3311 0
-1364 9384 566 0
-2099 -6623 -6604 0
-9315 8458 4593 0
-977 -8304 -492 0
8973 -1743 -4029 0
7866 -4189 -4331 0
-7500 -9230 1151 0
7088 -1330 1811 0
5308 -2461 -582 0
-7263 35 -8878 0
-1000 8118 3257 0
4168 -1550 -1837 0
5379 -6795 70 0
-8119 -2561 5904 0
6945 7542 1939 0
-9046 2697 7141 0
3894 9067 5668 0
-9733 637 -2112 0
-8896 -9441 -3531 0
3499 4667 -1777 0
5614 6372 892 0
9331 -5196 -3576 0
3991 6513 -6617 0
7192 -495 2501 0
-4012 -6672 -2707 0
-1556 5257 -7406 0
-7751 -7735 -7044 0
-6984 -6980 -4737 0
-9555 -171 -5337 0
-2406 -7108 -8339 0
-8573 2267 7879 0
-2030 8509 7138 0
1345 -679 -7200 0
-2314 -9783 -8673 0
-5407 -1312 -3504 0
-3915 -7901 -6974 0
822 -4837 9242 0
6627 7732 -5782 0
828 -9443 6882 0
348 4608 -8490 0
7666 4216 -9539 0
-6237 3949 2417 0
4199 7744 -6817 0
6409 -111 -5986 0
-866 -5074 540 0
7903 3110 235 0
9188 8449 -8552 0
9490 4654 1102 0
-7763 -4708 8081 0
293 -1394 -1082 0
306 -6992 -3087 0
-2533 -1125 -9068 0
6720 -1455 1255 0
8051 -6074 979 0
3957 4577 767 0
5018 -6376 4812 0
3145 -881 -106 0
-1925 8344 8998 0
2696 359 8023 0
8666 7801 415 0
-8096 4671 7516 0
-7184 -2337 1753 0
3931 8931 2116 0
-3597 2054 -6009 0
7495 9786 -4373 0
4328 -1373 -487 0
-1500 7452 1006 0
-2602 8604 -6143 0
-4836 8035 -5608 0
-60 -3722 9071 0
4663 7159 -3491 0
9418 268 -8938 0
-6839 6919 -3072 0
6140 2515 8843 0
-1798 8646 1039 0
4925 8315 -3634 0
-794 -2551 6455 0
-9151 -8698 -5955 0
-3260 323 9751 0
-5435 8671 -9688 0
-4974 -9202 -5102 0
-2677 -5598 -1986 0
5586 2205 -6174 0
-8755 5395 2435 0
-4331 4953 3030 0
7096 4300 2577 0
-8918 -3585 6635 0
-7627 5869 -7337 0
7173 9508 8244 0
-6410 399 -9764 0
1906 -943 -4407 0
-2972 -120 -776 0
9560 -4770 -5514 0
-1237 9299 -4028 0
-710 -9572 4477 0
-4997 -4197 -6388 0
-6072 -6632 -9357 0
-9637 -8821 -4280 0
-8649 -7296 2838 0
6095 2475 9528 0
7483 7305 2513 0
2995 3434 7176 0
-9470 -6907 7413 0
-555 8517 -4453 0
2041 2327 1937 0
8773 6774 8694 0
1145 -7843 -8755 0
-6007 3397 -9145 0
6536 7203 -6243 0
-7598 6107 8166 0
538 3796 -3641 0
926 -58 7020 0
9880 2602 8054 0
6774 7860 3897 0
-7345 6589 -2777 0
99 5543 -4984 0
-4208 3712 4383 0
4085 -7601 -5745 0
-1896 -3781 -7142 0
6610 -2468 8119 0
-3136 -4638 9290 0
910 8044 6542 0
7876 -1573 3098 0
-7459 6352 -3970 0
5593 -9500 5146 0
-1427 -3808 -9844 0
5442 6670 -4235 0
4657 -2225 -7134 0
1752 3205 -9534 0
540 -7651 4628 0
257 -5287 8003 0
-7601 -4724 6540 0
6835 -5608 8986 0
823 9677 2635 0
-6746 5692 -8427 0
306 6309 -3127 0
-8780 -19 8552 0
-2074 -7389 -1467 0
5883 -7989 -402 0
-784 4056 -9017 0
-9786 5508 8523 0
5961 8101 3863 0
7043 5606 -4491 0
-602 5004 -8041 0
-4753 -8307 7210 0
-74 -5064 1676 0
6507 -70 -929 0
999 4016 -1096 0
-5537 3106 9454 0
-1682 -9227 3293 0
8593 -9655 -6463 0
-8831 -9589 -6617 0
7478 4965 -3707 0
-751 8061 8948 0
-4846 -4563 -8090 0
3909 9183 -5162 0
1149 -9993 -9443 0
5420 -2780 6406 0
-955 -3353 -1475 0
-1105 -5096 -148 0
8381 4771 -1957 0
6720 -3807 -7833 0
8079 3331 7157 0
9512 6830 9982 0
-5564 7613 -9735 0
-7474 9298 4824 0
9043 3446 9950 0
-2007 5081 -5775 0
5185 4200 5056 0
4367 -2834 1427 0
1140 -4953 9257 0
-4170 9774 144 0
-9260 248 6507 0
5321 -9641 3152 0
-9390 7062 8535 0
2068 -7790 -7874 0
7197 -5858 3407 0
5723 5740 -4045 0
-25 -6807 5449 0
3345 -149 -6370 0
-415 -1994 -8430 0
-187 -8035 -252 0
7722 1830 -5158 0
-2552 7663 1514 0
-7038 -584 6023 0
8884 4795 -4161 0
-33 7327 8460 0
-1235 595 -598 0
-9724 9152 2042 0
9663 7299 3079 0
-3619 -5128 9212 0
-2751 -8853 7388 0
5311 -255 2958 0
7119 1370 -748 0
-8884 -8955 -7755 0
-7344 -7207 -6416 0
9389 -1050 4240 0
-6670 1140 2079 0
9777 7860 4977 0
-8205 -9207 -6169 0
1166 -5488 8325 0
8596 5605 -4369 0
-2786 2355 -2577 0
9363 5174 -487 0
9129 7294 -5281 0
5691 -165 2823 0
5761 802 9144 0
-8303 -3802 689 0
-1070 -6747 -229 0
-164 8681 6844 0
-4492 -2116 -7912 0
-6839 -7240 8837 0
-1205 9934 -8353 0
-7965 7458 -1015 0
-5636 1597 8259 0
2959 -904 -1359 0
-66 -8967 -2338 0
-9856 2666 -3572 0
-5295 -4220 8857 0
-4529 6634 -6994 0
75 1986 9624 0
6516 -4980 5713 0
5813 2605 -6092 0
-9561 -7666 -6436 0
-5429 2623 5290 0
4447 -3752 545 0
-8631 -3614 2999 0
-5227 -4849 2721 0
8912 8481 2168 0
1589 -1290 -7674 0
7829 -3487 -8746 0
-7474 -2780 -1103 0
456 -6522 -3655 0
1028 72 8107 0
-8296 1151 -3985 0
-6793 7622 -5115 0
-9562 59 -8886 0
-5236 -8550 -1818 0
3304 3741 -4448 0
8699 -1597 -5395 0
8946 -8330 6536 0
-915 -6006 328 0
8435 -926 -3319 0
-4243 -3400 -5148 0
-6541 -6590 870 0
1488 3542 -441 0
-4546 8003 7471 0
1493 9690 2902 0
3304 -9647 6069 0
7524 5967 -2372 0
-6144 4985 -2893 0
-7562 -8538 2805 0
1470 -8757 770 0
4120 -2501 1015 0
-5525 -7599 2849 0
9393 -9866 -5705 0
-7240 9789 6113 0
-4885 943 -1093 0
-1912 -3038 4553 0
-271 -4047 -7572 0
-2513 -6329 6050 0
6787 -5549 -637 0
6353 4592 -1360 0
-5038 -1421 -9269 0
7561 2026 8601 0
2725 -3874 1026 0
7476 -8619 -706 0
771 -7165 5656 0
-9594 3588 6073 0
258 -8799 -7555 0
1513 -7415 -6270 0
3428 -366 1662 0
-4490 -8405 6988 0
4707 -6570 -576 0
-515 -6906 8749 0
5509 -3535 -5652 0
-2112 3747 5986 0
-4497 -1090 -5985 0
2878 -691 -8679 0
-721 8929 1734 0
-8798 9017 -9228 0
-2517 8484 -1795 0
1037 -8476 8932 0
6999 9700 -4972 0
870 5658 -6654 0
-8674 9355 -727 0
-499 8355 -6983 0
9766 -6660 4854 0
4282 -4274 -9069 0
3772 2622 4694 0
6583 6922 4185 0
-7507 -6501 -5322 0
4600 -1303 9871 0
6404 1343 -3692 0
4677 -2777 -2247 0
5038 3249 1945 0
8282 -6439 -7862 0
-2075 3044 4461 0
-1525 6762 1128 0
-3471 7536 -7387 0
-5223 -9431 -5919 0
6665 4909 8725 0
5214 6052 -1113 0
2309 5028 3566 0
2707 -7371 1207 0
-9071 5564 -5452 0
-3573 2339 -3918 0
-4910 -9539 -3569 0
-3137 -5421 -7419 0
-6321 3794 -8448 0
-650 -6466 1656 0
4694 5186 6592 0
8679 -7056 -8902 0
-846 1835 -7350 0
2126 6822 7477 0
-1167 1371 -9554 0
-9116 -7407 2554 0
-840 6168 -5340 0
6383 -7098 6503 0
-5902 4266 5546 0
4276 3281 73 0
4392 -6181 -141 0
4866 9213 -6351 0
1558 730 7362 0
-6925 -1210 6055 0
-752 6669 -5736 0
9003 -393 -493 0
9490 -5430 2494 0
-6024 -3311 5786 0
4705 463 9323 0
6792 -4993 9043 0
5166 1705 9886 0
2199 -1214 -2183 0
-8209 -9350 4432 0
-7859 -7721 -9595 0
882 6204 5422 0
3284 1579 -1210 0
-8061 2426 8431 0
6531 3772 -7830 0
3639 2428 3058 0
6501 3054 -9151 0
8514 9365 -7716 0
-5254 -4956 1231 0
2516 10000 2050 0
-3825 3870 -9548 0
-2579 5540 -5596 0
-9059 -6510 4743 0
7453 768 7713 0
3657 6012 5349 0
-7743 -1521 -8414 0
9778 -5852 -5705 0
3612 -9839 9753 0
-7631 5117 -8904 0
-837 560 3639 0
386 4468 3927 0
8857 8137 3231 0
-4013 881 394 0
3128 2906 908 0
8231 -5951 -3326 0
6239 4519 -3782 0
-8272 -3192 7489 0
-9554 -3291 1017 0
8326 1328 8013 0
3744 5374 5733 0
-3830 -7455 -8334 0
3131 -2191 -1544 0
150 -4380 8069 0
2517 6540 -4197 0
-5242 7666 9804 0
-2289 -9363 -3012 0
-4426 -6805 5040 0
7137 277 8899 0
6202 4796 1043 0
1240 -4801 2321 0
-6833 -578 -8023 0
-5617 9200 -4252 0
5800 8183 7560 0
5417 1300 -8707 0
7851 -5504 -4151 0
2723 1876 1481 0
4737 7576 -4965 0
6865 6994 3326 0
-1833 9091 -1478 0
-8774 4321 6615 0
9976 8429 -994 0
6721 572 6684 0
2591 6431 316 0
-7136 -685 3838 0
9989 4234 -3757 0
-6149 7281 -9107 0
6469 1402 -2771 0
-1628 3128 -9905 0
1241 -12 4839 0
-2386 2372 -7122 0
-4897 4894 6167 0
3218 -5478 -4831 0
6408 9385 6983 0
8391 2832 1445 0
9074 -9412 6092 0
9568 -648 -1298 0
-5001 -9496 -4606 0
7932 415 9692 0
-8732 9934 4079 0
4644 9256 -7041 0
3630 -1094 -3801 0
4286 -1507 8035 0
2810 -8833 -6743 0
6900 8555 2229 0
-1785 -4435 -8094 0
-6909 8463 -4911 0
-956 -2072 -1326 0
7441 -5027 7017 0
4899 2546 5772 0
3073 8464 4652 0
6108 1116 2054 0
-4593 -1433 2471 0
8907 3356 -9569 0
-6492 -9354 2625 0
-2792 -3967 -6851 0
-3443 -1628 -2973 0
-7048 -3704 2033 0
-362 -9876 -7531 0
-7336 -6994 6944 0
6659 1880 -4915 0
-9105 -5601 6898 0
9201 -9575 -63 0
8572 8379 7028 0
-8711 -9694 6859 0
2257 -2509 -2234 0
825 4942 5119 0
-5918 4348 1481 0
7829 2021 -7419 0
1551 948 1113 0
2463 5024 392 0
3066 3550 -9462 0
8729 -7530 -1306 0
-1716 3194 -6118 0
-7728 1423 -4195 0
6555 9045 3870 0
4035 -614 211 0
1782 5899 7502 0
1665 3971 -1332 0
7025 -9517 886 0
7664 4164 -7497 0
-7127 -4849 7626 0
-9174 -5279 -1049 0
-4316 -2548 3856 0
-5074 817 306 0
-7621 963 -2501 0
-3268 -5322 -1688 0
-739 -3097 3879 0
-9684 6903 -9076 0
-5546 -7028 -4996 0
-9500 1690 -7616 0
710 6379 957 0
-7252 -5219 -8333 0
2230 7780 -5929 0
6495 7572 1932 0
-4753 -8070 8356 0
-8711 -6778 -4309 0
-891 5584 3969 0
-3968 -6516 4660 0
-3959 8497 -8943 0
-5359 251 3890 0
-773 -8314 -2022 0
9755 -839 -8740 0
-8612 -9330 8919 0
-9912 -7572 5194 0
-5416 4528 -4112 0
-4956 3781 1304 0
-277 -5696 -4712 0
-9470 9968 -9598 0
3756 2777 -9872 0
-1523 5798 528 0
-2696 5528 6760 0
5022 -5876 2336 0
-8545 -7268 8248 0
2000 -8372 -4040 0
9501 8302 -1710 0
2383 723 9195 0
6830 3075 7783 0
8885 -7773 9243 0
-5539 5402 -7471 0
2146 9458 -3180 0
-4046 9216 -6815 0
-1912 7574 -4778 0
3843 2052 3701 0
-5610 -9836 -4955 0
7211 8215 9983 0
594 -2617 -6215 0
9460 -2795 3822 0
6438 -9940 9858 0
3371 8573 -1201 0
-1827 4230 -2373 0
-1977 -2617 -7015 0
-2559 6681 221 0
9147 122 1789 0
-1822 9193 -469 0
-957 -758 1171 0
-7864 5936 -1809 0
-5293 7336 1519 0
1590 1640 3903 0
21 9212 -7292 0
1298 236 -1885 0
8907 -7806 -7765 0
7841 109 -1003 0
6026 -989 3937 0
1601 2115 -1557 0
6495 -4956 2512 0
-8913 -1070 -8146 0
-2353 -4785 6024 0
-457 9367 -9486 0
-3676 -9896 5075 0
-5615 6002 -9014 0
-937 -659 -5493 0
-3360 5814 -3529 0
877 -6504 -7929 0
-864 5649 -6787 0
7696 -428 -3352 0
-7572 -7374 3958 0
-1236 -2149 -2901 0
-7964 -310 -9450 0
-2491 9751 -6842 0
-7861 3473 9250 0
-231 -7683 -370 0
5446 -6445 4140 0
-6445 -1412 -3923 0
-8362 -8975 8203 0
2238 -2581 -1546 0
-5354 9334 -7990 0
-1857 -5127 4477 0
-7238 390 3984 0
5520 231 -2993 0
-7766 -4286 -459 0
4747 7727 -1323 0
-4195 3208 8925 0
9905 6338 5681 0
-2154 -1476 -6371 0
-7166 5804 5327 0
-9957 4764 -9625 0
-3721 -5709 8355 0
-9580 -9870 -8967 0
-6186 -2453 -9890 0
-6175 7043 5558 0
6473 -7757 7627 0
-1570 -7531 -9714 0
5258 8843 -1210 0
-2265 7934 8163 0
2963 90 -2915 0
-4227 -9721 -3896 0
-6460 -3512 5025 0
508 -3765 1353 0
-895 6413 -3120 0
-494 -4657 -9816 0
-4874 -9377 -58 0
6611 -9759 5197 0
4925 -143 6290 0
4067 4209 3067 0
-5341 -8117 3757 0
-774 7099 -2827 0
5413 -2812 -6203 0
-9078 5456 419 0
5397 8557 2478 0
-7799 -4670 6545 0
-4780 -2216 7708 0
-6595 5097 771 0
-5246 5903 -4704 0
-8086 9641 -269 0
6048 -3577 2577 0
2303 7280 -9555 0
-37 -9366 1300 0
-1546 -2274 -5764 0
-5085 -5868 4049 0
-106 1025 4774 0
-2642 1329 1430 0
-8882 -483 -8605 0
-7429 3469 5659 0
-3488 69 -3474 0
-3112 1491 -8226 0
-2594 7142 1761 0
6096 1194 -5160 0
1742 5758 -9994 0
2996 6860 -8320 0
-7554 4241 8641 0
412 2013 3206 0
4641 -6612 7263 0
8139 3639 -9249 0
2865 -1908 911 0
1744 -9067 6031 0
5257 -6472 -5262 0
-1926 -2367 -1988 0
8737 -1321 4733 0
7024 -2418 -6326 0
-7109 -2864 488 0
8264 4418 -855 0
2892 4488 -6687 0
6422 6877 5214 0
-3905 -941 6773 0
3229 -2663 3564 0
7080 2240 -1964 0
-1026 4860 5388 0
-5117 -2731 1138 0
2627 -4160 -1656 0
-8627 2999 9641 0
8830 -5519 -7527 0
-6117 -6162 1734 0
-1992 -5966 -5163 0
-4666 -9295 -5357 0
-5953 9730 -2672 0
-2918 7256 3181 0
3973 1243 3933 0
4141 910 5880 0
-7647 8884 -2742 0
-893 -9064 -4226 0
818 -3340 -2852 0
-9089 -921 -1797 0
-4593 5795 -9217 0
-5533 -2498 9722 0
-5242 8813 8281 0
-6428 -3296 6075 0
-2845 -918 -4329 0
-9084 3285 -5504 0
-3293 3844 9801 0
-6719 924 9722 0
3496 -9404 -2923 0
-2731 -8761 -950 0
2194 1437 4747 0
-8327 -1747 -7614 0
-9384 7047 2158 0
-7913 4511 5697 0
7297 -6470 1431 0
-8354 9236 -7998 0
8675 8516 -1311 0
-6060 -290 6904 0
4530 3805 -2804 0
4849 5485 8499 0
-7186 1037 4919 0
885 7652 2371 0
6816 6765 -5811 0
-5437 -9161 8112 0
4204 8580 5513 0
8066 7219 8440 0
-4460 4401 -9995 0
-5599 -9631 -3512 0
8991 -29 -8981 0
-3054 6531 -1433 0
-7663 -6557 -6894 0
760 -5301 7237 0
2396 -590 6257 0
2250 -6670 -9406 0
-5037 -43 8078 0
-3835 -5444 1607 0
9520 -9276 -890 0
-4011 6440 5642 0
-3054 -1396 -9061 0
-6811 -7639 -1212 0
9347 -8114 8380 0
-9761 9311 8653 0
9221 408 -2777 0
1099 9062 7614 0
8020 4230 8645 0
-9812 715 4196 0
3060 -5719 -7814 0
2842 -7849 2307 0
-4102 2365 -6669 0
-1902 3551 8491 0
3944 -9442 5717 0
-5609 7933 784 0
-9187 9001 -3448 0
-5055 -3604 9092 0
1347 581 4945 0
904 2843 2588 0
7019 9979 -6336 0
-6614 6673 8829 0
8413 6226 -2090 0
2630 -5474 -3795 0
7940 8123 2088 0
-402 1032 -7758 0
7649 9703 6840 0
-5236 6097 1886 0
-3235 -9609 4021 0
-6199 -1977 -876 0
7564 -9379 -1566 0
-2974 -5443 -1939 0
8900 -4694 6539 0
-4718 2079 7822 0
-5424 -2932 -8923 0
-6581 9257 1376 0
-1729 -4573 -9671 0
5347 -8625 -5837 0
3688 -6377 -5471 0
-3770 -1520 -8428 0
7421 -1026 3420 0
2130 5535 -2576 0
-7012 1854 -4667 0
5188 -2774 1967 0
987 9247 -5233 0
-5566 33 -305 0
-5125 -7456 -4331 0
-9612 -6728 -8179 0
-5410 1554 5755 0
3077 -655 -3821 0
-1679 5164 -4247 0
-3821 7065 -9898 0
7268 -370 -5898 0
-1343 2221 7805 0
7196 1099 -8871 0
-5797 -8859 2293 0
2163 2026 -1534 0
-8552 -8640 221 0
-6766 3055 -3838 0
-195 -1348 3560 0
1725 1945 -9778 0
5932 -9700 -5065 0
-6247 -6286 5921 0
-8748 5419 -4588 0
8938 4830 3662 0
-1127 -3205 732 0
612 -2454 -2784 0
-8330 -1909 792 0
-1380 -5818 -529 0
-3263 -1630 -8307 0
2670 -8184 -507 0
-2747 -4002 -2702 0
-2340 -8123 -3535 0
-8536 -7008 7824 0
7535 -5359 -2284 0
-2179 -7486 -5468 0
1499 8553 -7312 0
1716 -9370 -8567 0
9454 -4386 -3137 0
5260 -2089 3892 0
2247 4427 -2218 0
-9343 8893 819 0
9193 -7800 4996 0
1915 -8371 9340 0
-6732 4671 2900 0
6540 2163 140 0
705 -2322 -7038 0
-3587 -8054 -5982 0
-4935 -4984 -2015 0
4107 139 -7460 0
8375 9325 8465 0
4217 8067 -5771 0
-7570 -1441 -1387 0
-2126 -7785 5620 0
4683 -1261 530 0
6395 -8694 -9537 0
9899 3208 -2733 0
-2139 -7126 9207 0
-4838 2079 -3018 0
3117 7313 1892 0
-5860 -4516 -1646 0
3287 1953 2543 0
9296 -3320 -7728 0
2406 -9964 5166 0
4773 7378 865 0
-9009 -2198 -3843 0
9282 6679 -3344 0
8164 -6309 7398 0
4363 -911 6942 0
-1656 3779 -4805 0
698 -1532 8033 0
-2650 108 9657 0
-5959 -244 3145 0
3075 -4099 -2141 0
-5935 9451 -2456 0
2814 4626 2248 0
5601 -5964 1273 0
2802 1710 -2943 0
507 -4834 -9734 0
-3378 585 7438 0
5075 526 5400 0
-6428 -6850 -8904 0
5551 753 -8642 0
-2593 -680 193 0
1537 -3726 6500 0
-1498 -2636 3505 0
-3888 638 -1817 0
9611 1584 3929 0
-5731 4021 9579 0
1710 1456 923 0
9079 -1716 6841 0
-4617 8950 -8768 0
-5676 6315 -9519 0
5449 -6965 -6839 0
-5336 6628 -353 0
5685 -6773 -5424 0
5587 2616 -6282 0
95 9712 -505 0
4097 4665 9541 0
-2135 5031 -6695 0
3547 2840 167 0
-5681 -2065 -5786 0
7420 -4013 -2361 0
3791 -5538 7003 0
1358 4997 -1401 0
7183 -3001 -1935 0
-1629 100 5502 0
9089 -6205 9454 0
-6011 1647 8254 0
7745 -6006 -1034 0
-2160 3677 -9019 0
-4986 -7637 4104 0
546 -4814 9811 0
8728 7186 -4083 0
2826 -7429 -1169 0
-6844 -3757 3905 0
2389 -7057 -7369 0
-5567 8423 -8192 0
-4649 -612 1960 0
-7324 -9044 1115 0
-7521 5129 -9759 0
-9150 2076 2230 0
-9455 4914 9601 0
8855 2025 294 0
831 -8081 -2712 0
3432 -9792 -7028 0
6143 7224 -9653 0
-1678 7567 8478 0
-1245 -1145 -3769 0
4611 3553 1358 0
1080 191 462 0
8379 -261 1865 0
3955 -7300 -5873 0
6679 9404 509 0
-4056 -1192 -1745 0
5673 2418 -1706 0
-5321 -6836 -4330 0
39 5805 -4580 0
-1075 -8439 5554 0
4118 -1700 -7257 0
3518 -7383 6120 0
7407 -3246 -744 0
-1031 -693 -1030 0
-5847 8433 -4931 0
9665 1516 -9396 0
668 -6516 -1350 0
4226 -9897 1784 0
8279 2571 5537 0
6467 -110 9943 0
-3324 -2236 -2460 0
-8298 -9463 -6890 0
6438 1498 -3031 0
7578 -8371 5850 0
-9147 103 -570 0
-4090 740 -4611 0
1890 1004 -9376 0
5088 6554 -7060 0
1348 6421 -6580 0
4193 5792 7706 0
8184 6962 -9038 0
5872 7336 1753 0
1684 9052 7585 0
9717 -8201 3390 0
-4116 7517 -5043 0
-4513 4898 1570 0
-479 6068 6378 0
1051 -7499 -6461 0
7546 9441 6802 0
1799 9673 8748 0
7551 -8922 6900 0
-5688 527 699 0
7039 -6681 -9590 0
-2146 -274 8763 0
-6660 191 -1519 0
518 -8545 -5377 0
9561 8836 -510 0
-5620 -4401 4511 0
9832 7345 -7094 0
122 -4653 5501 0
-7611 -9612 -9458 0
6605 -9081 7084 0
-7921 1971 -5685 0
-2646 730 8049 0
-7422 -6655 8110 0
4683 8135 9152 0
272 2731 9397 0
-8176 -743 -1780 0
-6918 8422 4113 0
-4328 -2405 -4280 0
-789 5044 9607 0
2099 -9618 -6022 0
3265 9362 4960 0
-9081 7857 5989 0
5598 -3363 1640 0
9377 -7547 -5768 0
3512 -1537 -2918 0
6941 9669 8921 0
-9175 -7797 -2736 0
4404 9143 6513 0
3005 -2727 -666 0
9632 -7971 -9824 0
9010 1060 -485 0
-6353 -7064 5434 0
1166 -8579 9658 0
-9836 5087 4379 0
7966 -9044 -6597 0
-5591 -7046 6773 0
-2540 5871 6870 0
1566 -9891 5293 0
6607 -1919 241 0
-3603 311 8585 0
767 2181 9954 0
8920 7848 -9487 0
-3891 2771 -3654 0
-5371 9803 4901 0
-1288 -2439 -8947 0
-8912 3809 -8981 0
3490 1004 -3932 0
-8843 4342 2204 0
9975 -9799 6881 0
1586 9243 -645 0
1348 107 -443 0
-5854 8633 -8965 0
-7133 6018 4813 0
2349 -5345 9632 0
-4133 6422 -3242 0
-8571 -5187 6385 0
-1231 -7682 -9862 0
668 7687 -6712 0
934 -2406 9123 0
5777 2785 5494 0
-9098 3137 2809 0
8227 41 -7755 0
508 -918 -5547 0
9680 8020 -1164 0
-4411 -3359 6063 0
3304 9363 -6090 0
9846 6528 -7864 0
-9899 -9820 3167 0
-1507 -7468 9007 0
5187 5372 4757 0
6024 -6027 -3403 0
4601 -2115 -1897 0
-5197 -4221 -3445 0
4070 -4663 -6067 0
8871 -4219 -9990 0
1396 8567 8787 0
1378 360 172 0
3802 2690 -858 0
5875 7698 -8824 0
-9533 -7953 -1881 0
9452 -7399 4497 0
-890 -8208 3388 0
1563 6549 -6311 0
-6354 34 2677 0
4416 775 -5519 0
-1575 -8446 -5634 0
6428 -8047 5515 0
4833 1847 8996 0
4756 8872 -110 0
6215 -5150 1447 0
-687 -2299 1186 0
-2311 7019 -1400 0
7578 -9330 -2490 0
2668 -7223 5519 0
-9550 -1520 -1116 0
-929 -8520 2405 0
8988 -6452 8713 0
5034 2592 5484 0
-575 -190 -8166 0
5745 6192 7199 0
-4560 8309 88 0
3944 7098 -924 0
4571 -7183 -2786 0
-6210 -4497 -936 0
3061 8770 -1067 0
-7473 -4829 -8035 0
-9716 1462 7568 0
2336 -6910 3527 0
-9851 6926 -4388 0
2570 3259 5845 0
1512 -769 7975 0
-6482 -3907 -8553 0
-2323 -846 -2577 0
3314 3352 2698 0
-3941 -803 -3205 0
8074 -976 3778 0
9100 -2744 8231 0
-5359 6656 6035 0
8638 4101 -5277 0
-2074 -8555 1424 0
-2201 5220 2608 0
-5818 -5685 -3368 0
-9940 5354 9042 0
-377 9609 -9957 0
-5414 8245 950 0
4653 1119 317 0
-2021 -3156 882 0
4273 -2768 7261 0
-4156 3728 6225 0
8176 7597 -8800 0
-1133 7069 -9733 0
-5279 5329 -5285 0
-9790 -1191 -8392 0
5144 9776 9348 0
5164 -4747 8680 0
-8257 -8185 -7393 0
-5218 -9631 5395 0
9213 -350 -260 0
830 -5590 1964 0
-4554 -4982 -2494 0
-718 3902 -2187 0
5680 4308 -1574 0
3501 2913 6034 0
9425 -9078 6472 0
-1815 8939 6355 0
-6656 -8470 1360 0
-4023 -2166 -671 0
-123 6275 -232 0
7927 -6920 9250 0
7076 6893 -8439 0
-6580 4716 -7660 0
-3496 -216 -5621 0
5110 2873 -7142 0
-8492 2737 1703 0
-9173 4756 8063 0
-1724 3138 1984 0
9064 1631 -527 0
-6131 8429 3519 0
50 -4350 -4896 0
-4040 6481 4281 0
-2251 7886 -2913 0
-9285 -4385 -3436 0
-9180 -8644 -5952 0
7778 198 6948 0
-2161 6091 7140 0
3210 5950 -4084 0
-7908 -8239 -4374 0
-3018 -2176 8994 0
-6832 9159 5057 0
-3725 -9061 1439 0
6374 4874 -879 0
-4111 130 -3052 0
6085 2924 -1540 0
-8794 -8158 -3538 0
9765 -2184 1825 0
-8606 -17 3398 0
7160 469 -4788 0
3416 -6752 -267 0
-3869 -6585 -8525 0
-7858 4048 -5595 0
4927 -605 8041 0
-3305 3330 -126 0
8678 3523 -2932 0
-9400 -903 2532 0
4035 -1518 -9890 0
7776 8402 938 0
249 -5388 8441 0
1769 -2573 7213 0
-2268 -1735 -7099 0
-9327 3491 -7142 0
28 9236 -7509 0
-8622 6437 -6749 0
9762 -1527 4738 0
8547 -9395 679 0
-2897 7494 2973 0
3266 9518 -8633 0
8805 3015 -3158 0
9739 9261 -6326 0
5160 3036 -339 0
-3310 -9156 -6835 0
-6196 -6824 3672 0
-4777 9902 6844 0
3464 -9988 -8577 0
-3122 2650 2128 0
6768 9526 -9822 0
-5421 4386 -9930 0
-6797 -2526 -7375 0
8732 3630 7359 0
-8615 5775 -3489 0
-5548 4179 -4844 0
3137 -5249 6255 0
-9695 6347 780 0
-8290 9640 -9257 0
-8359 8260 -5528 0
4764 6796 -9735 0
8456 9084 2716 0
3579 -7242 -7047 0
-4753 -3245 447 0
-6069 -1303 2536 0
-9349 2742 -5880 0
-2935 2425 3361 0
-942 -2285 5489 0
-1743 5789 5530 0
-9720 326 2121 0
7742 4308 4962 0
-8572 -2462 -9064 0
-7273 8807 -4745 0
5025 5367 -7453 0
1318 -6219 3867 0
4363 -2178 -6606 0
-5019 -8994 -572 0
-1118 550 -4586 0
-7500 -6385 -2640 0
7769 -2137 8526 0
-3839 -1945 6219 0
-8710 -258 -6564 0
6262 -7020 -4268 0
-3538 1251 308 0
-1696 -5468 6012 0
409 -61 7696 0
-3178 5474 -8165 0
499 3528 -6352 0
-1063 -4999 6754 0
-177 -9659 1466 0
3419 2037 3935 0
2451 -1929 -547 0
-646 4528 8429 0
-1078 -1394 -8223 0
136 -3802 5251 0
-6969 -6440 6468 0
-8914 7207 -7823 0
5301 6436 -510 0
-3558 507 -9178 0
8873 -289 6583 0
4452 3764 -1976 0
-3269 -5613 -7517 0
8585 -8912 -6305 0
-8289 8577 -3368 0
-8635 -5887 -9839 0
-6568 7521 -5967 0
250 4906 4453 0
819 -8954 -3341 0
-7050 1950 1106 0
-7127 -6075 -9603 0
-7013 -3802 -5423 0
-7253 -5969 -2929 0
-3615 -9096 -502 0
-5737 -880 -6083 0
1479 -8134 -260 0
-733 -2095 2606 0
1193 509 -614 0
-7437 2906 -2972 0
-9455 -1048 -671 0
-942 6351 7288 0
1501 -9874 -4885 0
502 8559 -15 0
-4187 2649 4205 0
7006 -1561 3685 0
848 -5045 -1367 0
4682 -4583 5428 0
-6572 3691 -8877 0
-7889 -7210 8518 0
-3961 1151 5591 0
-6410 5951 -2168 0
-8549 -9991 -8453 0
-6949 3768 -6496 0
4886 -8202 -1204 0
-1575 6768 -2791 0
-2760 -9990 -7018 0
507 651 1618 0
-3555 7568 -1030 0
3707 -873 2614 0
7701 6990 -2861 0
-1461 -5365 -2900 0
-8121 -9085 2237 0
-7729 -4423 -4345 0
-8967 -1601 7622 0
-1847 1540 1210 0
1352 1140 1246 0
6428 9919 4430 0
3421 3970 -4084 0
5436 -8456 4501 0
-7348 2901 -3141 0
-7985 -7275 -6230 0
-4178 -1207 -4875 0
-729 -266 9835 0
3499 -9479 -2245 0
-9175 5433 3260 0
9280 -401 4138 0
305 -2194 -6923 0
8428 6681 -7360 0
5268 6094 490 0
3838 1619 -9527 0
-7708 -939 6673 0
813 -7315 -319 0
-7760 5201 -8620 0
8841 -1983 9851 0
2178 -2249 -166 0
-9365 9386 -6216 0
-1323 421 -7020 0
1168 -2199 8803 0
-8178 -418 3925 0
-1340 -2138 5251 0
9921 3052 8795 0
-3817 1295 -2905 0
-2279 -3843 -4281 0
-7159 4618 -5170 0
-8698 -1132 -2341 0
2379 7802 -6678 0
7685 -6887 1314 0
-3297 -3933 1637 0
-7859 -7419 -5048 0
-5461 455 919 0
-3135 2117 9646 0
-1566 8612 8604 0
80 -1178 9389 0
3196 -5284 -3533 0
5693 -5932 -1971 0
-4884 7819 7210 0
3328 5270 -7349 0
-2656 453 6206 0
-4732 119 -4737 0
-6438 -7695 769 0
-1464 2364 -3471 0
7342 -4348 803 0
4214 389 -6168 0
8183 1246 9425 0
-9910 4838 -5948 0
3229 4929 396 0
2015 8674 7057 0
-6746 -5070 -5613 0
-5666 -7959 -6038 0
5551 544 -6596 0
1913 3983 -7187 0
56 -5124 9955 0
-856 9359 -5852 0
-5258 6216 6087 0
5034 2641 -9181 0
3289 4519 948 0
-2402 2860 -3024 0
-570 8383 -220 0
1870 -73 -1321 0
947 -2321 -7668 0
1859 5873 -2322 0
1306 -7935 -9801 0
-8953 5917 1335 0
1282 -2595 9940 0
3878 -5338 -196 0
-6355 -4004 -1064 0
-5880 -1709 -328 0
-3683 4598 -4688 0
5068 1452 9655 0
-6369 3106 -8825 0
5392 -6235 -5370 0
1722 -2199 -3170 0
5265 -600 -3245 0
-5569 -1284 7382 0
-5800 -2808 -5094 0
-8075 -1988 9575 0
8636 -1966 -6569 0
2159 1319 -7765 0
5977 -2052 -8076 0
1661 -4670 245 0
-4132 2996 3951 0
-7079 5531 6306 0
8096 -3305 1541 0
-7374 -8204 1410 0
8320 6726 5405 0
2796 8447 -9925 0
-9164 7043 2363 0
-7560 4317 9272 0
9259 -2516 -9110 0
-2808 -9236 -2022 0
6896 4313 -8131 0
49 3141 -6386 0
-7993 -5206 2772 0
8467 7698 -5238 0
7528 -6374 9432 0
-2275 -1654 -9092 0
7412 -4639 8047 0
9036 -5247 -4108 0
-1212 -4661 -3875 0
2270 -3076 4248 0
-3559 -7566 -5734 0
9547 -1088 -87 0
3453 -9047 -6661 0
-4074 -8688 8364 0
420 -5624 -1029 0
-1210 6081 3901 0
-2023 -2591 -8870 0
-1972 -5303 9996 0
-8731 5785 -6498 0
8043 3950 2813 0
-3795 7680 1778 0
-5261 -5570 3737 0
8244 -4714 -2230 0
-4168 -739 5150 0
-8651 -3603 717 0
6025 -5761 1271 0
6087 7637 8275 0
-2435 2317 5611 0
8807 -4762 4064 0
-312 -7843 9065 0
-4225 2064 9993 0
4142 -1051 1173 0
-4288 6824 -8402 0
-9840 -2438 -6451 0
-7713 -7835 5442 0
-5980 -458 -2447 0
-2778 -5738 8480 0
-7028 -4430 2533 0
-3804 2281 -7470 0
-8307 8441 -6822 0
1911 5643 -4821 0
-7644 3289 -9019 0
4048 7060 -5356 0
4776 -8858 8160 0
-8383 2668 -3640 0
1942 4947 -9998 0
4249 -36 4607 0
-6449 -7322 3596 0
8321 -2707 -241 0
-3174 -6389 -4016 0
-8025 9528 -1877 0
9577 4729 3291 0
6745 7991 4410 0
-3723 8653 9573 0
-585 2449 8717 0
4743 -668 -3771 0
6447 -7943 2914 0
8639 9506 6504 0
1603 -4040 -1347 0
-2155 -1094 -3612 0
522 8318 -1925 0
3262 -84 -3346 0
-7460 9945 9472 0
4912 3612 -6861 0
7536 -1327 5049 0
-3331 4610 781 0
-6204 -5948 3195 0
5815 -405 7282 0
6265 -2454 4073 0
8305 -4553 766 0
-2523 7733 1318 0
4731 2874 -3857 0
-8763 -5257 -8955 0
-8053 -9962 -8093 0
1172 -5976 -8803 0
-4010 -6984 8889 0
-852 3990 -7387 0
-8578 64 -8005 0
-8256 1762 7056 0
-320 -2495 6990 0
3057 -3302 -2301 0
-8144 3100 -2533 0
-2291 -8884 7850 0
9392 7894 7164 0
-1846 3132 -331 0
9278 4760 6450 0
-458 -704 7035 0
3723 -3274 -4656 0
1515 -4826 1296 0
-3804 -7045 8933 0
8363 -3018 8751 0
892 3822 -8441 0
-6621 3753 8269 0
-3166 7503 -963 0
-4878 7673 -4840 0
-8019 -3820 -3969 0
-8166 7791 -6417 0
2852 5677 -1673 0
-9172 -2076 -7610 0
1402 1121 2218 0
-5668 9544 7114 0
-8080 1596 -2805 0
2669 -2524 -8202 0
-3583 -2002 -2881 0
9721 -881 4465 0
-3355 4343 -6109 0
-1678 7108 -6685 0
1600 5688 -6087 0
-1237 5824 -2314 0
-9626 -5499 -2850 0
-6559 -9071 -7495 0
1195 -6363 -7621 0
7245 454 2652 0
-5621 -1910 9695 0
4261 2129 3542 0
-9911 4070 -9023 0
4837 -7057 2571 0
-8071 -7392 -8037 0
-8484 5798 -6545 0
-7185 7516 5777 0
1633 5553 5813 0
-7881 -649 8975 0
3941 3052 -6728 0
939 9718 3827 0
-7169 -1923 -515 0
-917 4481 8918 0
-4725 5251 -1952 0
-514 -4330 3820 0
-9901 7811 -6600 0
7883 7867 909 0
7636 -3699 4949 0
1864 4570 119 0
2919 1321 1485 0
5926 5049 7557 0
3405 -9347 9533 0
-2063 7423 -2469 0
294 -2292 -9268 0
5891 -5824 -9378 0
2056 4648 3065 0
555 -7194 8377 0
-2985 7035 2352 0
-64 2545 -5129 0
-2859 6409 7823 0
-8739 -3420 6309 0
1779 7643 -7961 0
-3320 8268 -909 0
-7727 3761 9214 0
1226 -4404 2 0
4967 -4978 -2894 0
544 -8873 7412 0
1207 171 8627 0
9905 -6884 -4402 0
-2488 1769 9271 0
-2226 -7001 -8003 0
2114 8073 -6179 0
8981 -5433 2897 0
1480 6971 6436 0
-697 4799 3611 0
1432 -5228 6099 0
-7012 -8836 -7133 0
-5560 -2250 864 0
5578 9669 9765 0
-2004 -2120 6892 0
7468 9597 6761 0
5665 3902 6979 0
3391 -8249 9793 0
6519 -7873 -5440 0
6195 -3403 -8464 0
1540 1925 -2682 0
3807 9689 777 0
580 -4105 8994 0
5020 -897 -5385 0
-4887 -5613 -8940 0
8396 4969 -5646 0
-6942 -7045 8026 0
573 3341 4190 0
-4824 9289 -1697 0
-7777 3101 308 0
-8343 9117 -7507 0
-3758 2853 -3529 0
-8310 4717 -5219 0
-179 -8549 -7253 0
-3722 -6532 -4595 0
5175 5197 1398 0
9265 5021 3520 0
8702 4165 -9020 0
-563 -8145 -2488 0
4676 -435 1420 0
7439 3375 279 0
7526 -6808 -6878 0
221 -2281 -6646 0
5435 -8747 1334 0
-9407 -3098 -5647 0
-2237 8293 6124 0
-5631 -7311 5804 0
-4708 2764 2499 0
5650 149 -5277 0
8060 1828 2154 0
-2642 -9922 -9521 0
430 3893 2502 0
4050 3233 -637 0
3666 -8227 5057 0
8050 1769 1620 0
4770 8704 8269 0
6575 -723 -1472 0
4759 -1841 4753 0
8739 -9240 5456 0
1476 -3525 3067 0
-6907 5088 3775 0
2460 9880 -2508 0
-2486 8305 -9583 0
-7116 424 -792 0
-1015 -6683 -4717 0
5673 -1128 -6172 0
1656 967 311 0
-8731 1531 3198 0
4334 7751 -1808 0
5344 490 6840 0
6513 3923 9540 0
-6102 9009 -2365 0
4215 -9611 -8848 0
-4517 3909 -1901 0
850 -5185 -6393 0
-232 2820 7340 0
5183 9477 9802 0
9651 -2041 3071 0
-6614 7089 -5757 0
-3171 7467 4211 0
-3120 -341 2270 0
-8611 -4471 5392 0
3217 6190 357 0
6434 7959 2243 0
-6573 -2204 -9815 0
4066 -7727 -568 0
8546 -2296 -1264 0
-4742 978 -328 0
570 7642 6744 0
-9871 711 -3495 0
-3662 -9899 -1863 0
6892 8229 5224 0
-1780 9928 3835 0
9703 -7497 -3138 0
6514 9210 -4442 0
3726 -9576 9536 0
7019 538 2689 0
-9052 4245 9004 0
2156 6946 992 0
3313 1126 -8109 0
-58 -8972 -9869 0
475 9880 -5230 0
970 -198 -6325 0
1373 -7643 9264 0
-1145 -1540 -2919 0
-656 -8760 7639 0
-2513 -4606 9511 0
-9357 -6158 -3305 0
-4270 8247 684 0
-8072 1192 -1987 0
-4936 3725 -2339 0
-9882 -7204 -9607 0
-7708 -6630 -8267 0
7660 -2731 -2025 0
-7257 -5793 5852 0
-395 -9539 9345 0
2931 -1598 195 0
-4484 -4072 -4941 0
4819 758 2795 0
-7608 -2699 5952 0
-7129 4516 -8066 0
-5157 4766 9425 0
8712 -4465 5312 0
-5622 2227 -9088 0
-6046 -119 1966 0
3496 -3852 -5778 0
-1839 6491 5494 0
-5776 8927 -7209 0
2261 -1462 8334 0
-3899 9849 -5494 0
-5905 97 -8460 0
546 657 5164 0
-4326 7720 6647 0
-6804 -4908 3255 0
5528 -2369 9148 0
8706 -4819 8811 0
-9462 7932 -7439 0
3339 -906 -2153 0
-5904 -8533 -8718 0
4174 -1970 7176 0
5411 5744 -930 0
6858 -4838 -848 0
-2392 -8050 7949 0
-5242 -3010 -2143 0
1807 -2035 -1282 0
3802 -3589 5070 0
-7905 -5269 -7236 0
3402 4167 -2012 0
9402 6013 -3708 0
9556 6553 9640 0
678 2080 -3116 0
7586 9127 2360 0
9290 -648 8115 0
-3308 -5906 -4064 0
6452 4011 4369 0
-5244 -4416 -8380 0
-1412 -9361 -491 0
722 -6988 -2479 0
-9977 -6684 -1111 0
-9644 -8015 -4277 0
-8703 -634 -7966 0
7938 652 4765 0
251 7553 8995 0
3261 4907 7513 0
-7871 -8695 7544 0
7442 7709 9169 0
3715 1566 4203 0
5374 -6970 -4863 0
236 -9179 1188 0
-6939 9924 7017 0
-9940 -5555 -1850 0
6479 9034 5334 0
-6707 6344 5964 0
1929 -795 -3191 0
5483 1448 2291 0
-6872 552 772 0
-2256 1688 2717 0
6149 5356 8619 0
-5487 -1531 -307 0
9663 7178 4459 0
-7133 1189 -3742 0
-609 -6580 4559 0
-5750 -880 3300 0
-3639 -9096 -9171 0
-7765 5106 -5778 0
1742 -5839 -8340 0
-5784 3584 1575 0
3726 5424 4416 0
797 5224 5759 0
-9330 3807 -7469 0
6390 -9798 -1540 0
4595 -9916 2011 0
7165 6727 -4431 0
-8310 3422 2578 0
1956 -4710 4880 0
-9559 7757 7129 0
-5847 -238 799 0
8852 -9940 1494 0
-1745 3387 -3380 0
-1726 8173 -8586 0
-4464 3093 4000 0
9513 -8422 3928 0
996 2607 -3878 0
-5388 -7384 -8976 0
-367 -9404 -5144 0
3760 5470 7270 0
-7318 -9103 548 0
8651 8391 -7159 0
-2320 -2105 5534 0
-4295 5934 -1804 0
1872 -1511 6942 0
486 2627 -4498 0
-8893 4100 -8088 0
7022 -8593 -3673 0
1457 -2556 -2921 0
8923 -4880 9475 0
-8740 5378 3543 0
9115 5507 4681 0
3016 -1437 -2346 0
-4332 6177 8032 0
-2447 5224 -6677 0
-2004 -9918 7904 0
5783 1893 9284 0
-8556 -7000 5646 0
5253 6688 -7439 0
1869 9429 5049 0
3030 2870 -564 0
-4024 -1841 4361 0
3867 5859 -7418 0
-3140 3687 4197 0
9555 1582 9282 0
9661 -774 120 0
-5861 8680 2702 0
-9611 -690 535 0
6400 4641 -4684 0
613 6457 7752 0
-7975 -5746 6241 0
-8568 -1331 653 0
-5095 -3444 988 0
717 -7341 -9747 0
8258 8642 4065 0
-285 2501 -6736 0
-5520 3696 8939 0
-6973 -5035 -3687 0
253 9055 9118 0
6559 2018 9077 0
-6302 -1711 4060 0
-309 -8341 2090 0
5213 8266 -4685 0
-2831 6687 -5271 0
-1112 -1551 -3300 0
-769 -639 2361 0
-6165 4119 8338 0
-6350 4759 -3217 0
-6132 -5058 -6600 0
8763 -6962 9551 0
-5433 4093 -6295 0
-6221 -8727 5913 0
-4597 -4445 -1669 0
8173 -9633 5530 0
-882 4071 4906 0
5395 -7449 2127 0
-8743 6629 -2941 0
7847 -8726 -931 0
-6490 127 2772 0
-2619 8075 6205 0
1869 1502 -8439 0
-1272 -9018 1062 0
-5874 9596 -5349 0
-1504 9169 8783 0
8681 -8725 3815 0
-3914 1263 3775 0
462 -6246 -9217 0
545 1620 562 0
3203 7048 -1893 0
3744 7455 7061 0
8060 9909 8594 0
8729 -4171 6550 0
9353 -1752 7829 0
9298 168 3241 0
-9675 7639 4533 0
5792 8705 3836 0
8754 -7676 -5533 0
4795 -7665 -3071 0
-6429 -7787 -1226 0
1110 1482 -8091 0
-9316 -102 -599 0
-4091 409 -9873 0
-899 3781 -4846 0
-8928 5895 1178 0
-2653 7131 -4876 0
-9950 -8989 7330 0
-3522 9973 -6515 0
2384 -4012 -8510 0
-1026 4813 -9593 0
-4895 -1103 -3156 0
-7855 4486 8719 0
-535 6793 -5281 0
4686 393 4373 0
-2351 -1275 -6229 0
533 -762 8341 0
-8484 8397 -5591 0
3774 -6091 312 0
-4837 1012 -9731 0
-7366 1981 -9126 0
6123 -9496 -7416 0
6197 -9212 9906 0
780 5807 6476 0
-7621 1012 -1028 0
8003 2162 -5561 0
-8255 8752 3641 0
2583 -5361 513 0
2227 -6716 -4885 0
-4020 1586 -3630 0
-7443 -5571 -9966 0
8911 4481 7905 0
-9138 7541 -3196 0
5928 -557 9361 0
5900 1742 -2971 0
9818 -8552 -3333 0
5946 -502 -1384 0
4246 5031 4656 0
-6467 2059 -5289 0
1785 -660 2292 0
-6666 9384 -9062 0
-4812 7527 -9015 0
6984 -6454 -5928 0
7718 6077 -8903 0
9701 95 8754 0
-8905 -2672 6087 0
-9529 1970 -7191 0
-5625 4098 -8593 0
7390 -7856 -6957 0
-5627 6536 -8367 0
9816 -8305 -6566 0
-590 -1507 5372 0
-4918 -6785 -4541 0
4593 4531 -6954 0
-4989 -918 -4649 0
8789 -2910 8822 0
6192 2941 6924 0
9274 -2794 -8077 0
3417 -3520 4533 0
2061 4688 -7424 0
-5549 -3369 -6577 0
9172 -3849 -3896 0
-9218 -8477 5731 0
-3606 4569 -429 0
-146 2852 3644 0
7866 9962 -8994 0
-675 -8816 -1286 0
5576 1226 5661 0
8098 5295 6589 0
6763 -5718 -1688 0
5740 7796 -2231 0
-7486 29 3897 0
5103 2752 -6629 0
909 8528 9295 0
726 -4124 -9534 0
-9027 -1463 787 0
-8849 -9247 7410 0
4499 -5540 29 0
6585 -6861 9799 0
9665 -8299 7669 0
-4768 7654 1315 0
-160 9638 6855 0
-9225 -2781 8634 0
-8414 -5401 -6215 0
2970 7464 6172 0
-8130 3227 -9308 0
7299 -5946 -2766 0
-6477 -4411 -5649 0
816 -1220 -3765 0
-7074 -4771 -5331 0
5898 2545 -9606 0
-9722 -4999 619 0
-8671 -843 -3974 0
5456 -5184 -3328 0
-5601 6329 -8075 0
-769 -8424 2803 0
9152 -4613 -6566 0
2696 -2990 7512 0
1647 8456 6856 0
2700 5633 1495 0
3984 5849 1653 0
-9863 7931 -8164 0
8700 3988 9945 0
8561 7747 7806 0
-8376 -3696 -5138 0
-2685 5020 6679 0
-2783 -2433 -2052 0
-322 5834 -8125 0
-9855 1787 338 0
2535 -6567 -1476 0
-9814 5161 4822 0
-640 2351 -8364 0
6928 -107 5580 0
5482 8442 7262 0
-2738 7265 -5070 0
3756 6201 4006 0
5403 -8442 4035 0
8054 8721 9093 0
-8168 582 -1496 0
-280 3702 3989 0
-7665 6715 -8501 0
-718 -7111 4878 0
4165 3780 5536 0
9594 1950 9648 0
308 -7380 8800 0
4019 -6912 8461 0
-8453 -7611 -7691 0
9479 4802 6637 0
-6188 1705 -6976 0
-1623 -4460 5694 0
-9325 -7328 585 0
-8519 798 -5895 0
-2226 9153 8556 0
-6951 -284 5677 0
6942 36 7933 0
-1022 -5054 -2007 0
-2552 -9662 9432 0
2390 -6645 6169 0
-6250 -6258 2545 0
-7371 7128 8195 0
-8878 5968 -6598 0
-608 917 -5410 0
6096 7610 7301 0
8340 6078 -4449 0
2342 5703 -7583 0
-7410 4822 5311 0
257 -5133 810 0
4417 5617 -3210 0
-8487 6388 -2956 0
5073 -9402 -1706 0
-9623 -470 -5688 0
-6775 -4960 4268 0
-8306 5681 -8435 0
-8505 -8815 -7759 0
2072 -9369 6665 0
-2257 -259 -8568 0
-3144 9173 -9134 0
-6500 -6912 -8720 0
3354 -1031 -1219 0
3432 8446 -9963 0
2754 9598 6735 0
9864 -3265 -8839 0
-4991 -9138 6082 0
-2941 -2152 7620 0
3816 -786 4424 0
-4374 -9231 821 0
7126 -4237 -6896 0
-279 -6940 5145 0
-8148 -4676 7230 0
-8918 2701 5825 0
3012 3324 1097 0
5419 -741 4187 0
383 98 -2730 0
4485 645 507 0
8774 -1659 4064 0
3652 6606 -3827 0
5801 4663 -2538 0
2705 1707 -7605 0
9995 595 9756 0
-4322 -248 8523 0
8097 8424 6674 0
-130 -7484 5878 0
494 8676 5368 0
-719 6854 9808 0
-6340 -4799 9363 0
4789 6460 -1666 0
7434 -153 -5179 0
8520 414 -5485 0
-6605 -8207 -3731 0
-2733 -9171 -104 0
3469 5754 495 0
-1012 -9123 -5290 0
-6204 892 5846 0
3168 -3459 -9690 0
9417 6853 -53 0
8930 -3089 304 0
4592 6482 -57 0
9697 -2669 4191 0
9386 7988 8671 0
-5810 9529 1381 0
-6825 -4217 -2782 0
9089 -4992 -8271 0
-9913 -1264 9544 0
-4416 5286 -450 0
4669 5417 7136 0
-8455 -4274 8512 0
1896 7616 5106 0
8263 -9354 -246 0
4361 -407 -6331 0
4996 1592 9434 0
6729 -5588 -747 0
-2236 -4591 9945 0
-4838 6980 -9959 0
7535 -9755 1691 0
2079 -4749 -8536 0
-6184 7403 -2260 0
-8617 -678 585 0
-8934 3320 7452 0
1939 6932 1893 0
-8217 2542 -1351 0
9756 4246 -7938 0
6380 6403 -7031 0
862 -1536 -7511 0
1984 -8614 3473 0
-2215 821 1964 0
-9455 9195 306 0
6172 5182 -8732 0
-5089 -5999 7931 0
-81 -7245 -9253 0
-4894 1656 7040 0
1005 8501 -28 0
-2064 3844 7290 0
-1456 3471 -3212 0
-827 -9890 -1559 0
-414 9496 -2224 0
-6964 5772 -6397 0
-7060 -9385 -5193 0
-1181 9684 625 0
-900 -3925 3769 0
-7703 -1365 -2710 0
-2581 -3602 -8036 0
-1784 5588 -7611 0
-7865 -5644 4097 0
9862 -8428 -7492 0
9722 2302 -2446 0
-9701 -9324 6636 0
-699 3948 5185 0
-1792 4883 1085 0
1264 -9135 9935 0
-2802 7347 -7754 0
-641 -284 -8820 0
637 4865 30 0
-4739 -6854 -3906 0
-5444 9177 -4623 0
5304 -534 385 0
-9409 5870 7370 0
4607 9691 -2458 0
-1058 -801 9642 0
4723 -4847 -753 0
9730 -3044 -6550 0
-6822 7975 591 0
6410 -1561 4382 0
9897 1054 1797 0
3962 -1807 -9091 0
7521 55 8777 0
-1975 -9136 5108 0
468 -1569 -6810 0
-4742 -1112 1255 0
1368 5898 -7340 0
3904 -1882 4318 0
711 265 2516 0
7766 -8771 -6843 0
-763 5636 435 0
9631 -3753 -2359 0
2733 6733 -6866 0
902 344 674 0
-8891 1267 -4691 0
6934 6254 3871 0
7089 -1713 -6271 0
2734 -5941 9866 0
-9141 -9049 -3674 0
-7678 -5620 -9950 0
1715 -9592 -6585 0
-355 -9897 526 0
8493 1305 -9694 0
-4489 2320 1537 0
-914 -9806 7634 0
6505 -1073 -177 0
-3086 -3883 -3205 0
-8515 -5447 9595 0
9433 9039 -6379 0
1943 -9335 -2399 0
3211 9902 -4332 0
9314 4849 -442 0
-8431 441 -3206 0
5641 -5869 2111 0
9435 842 1756 0
4665 -308 1410 0
-1927 4601 4099 0
8584 -6918 -8813 0
-7500 -6719 -9054 0
7934 -1554 -2925 0
-7499 -2654 -6527 0
-6481 682 -6020 0
7493 7549 -1532 0
6187 9389 8273 0
4243 -5835 8522 0
-2762 -9504 3847 0
1624 1102 6320 0
6596 2948 -1709 0
6763 1645 9691 0
-8115 -3143 9033 0
5273 414 -1903 0
9513 5519 -512 0
8285 -2030 -3820 0
4309 2065 4282 0
-2149 -280 -2786 0
-3098 -3537 -7853 0
-4136 5851 -9384 0
6205 9342 -1684 0
-4543 -5284 8229 0
-6488 -4351 -314 0
7237 -3615 -7071 0
3863 3561 -8170 0
-82 -1989 3685 0
4137 -4393 -60 0
8277 4682 -9693 0
1628 -1723 1965 0
-603 -1583 -7456 0
-8800 -3777 -9556 0
-5005 -4062 -7604 0
6012 9726 -8021 0
-2427 -747 65 0
-2333 4844 -5100 0
-3704 -1399 -6936 0
5724 -1854 2864 0
8324 4179 -3414 0
9035 1195 5710 0
2692 -3267 -1041 0
-3800 -8636 5503 0
6636 -4475 -6003 0
-9022 -4543 -6983 0
-8959 -309 7276 0
-1675 4039 -8907 0
3029 -3429 -1676 0
-7771 -9357 8977 0
-5094 5790 6271 0
-65 733 6362 0
-7854 -6174 -2954 0
7972 6213 -4821 0
-2147 -1538 5311 0
9642 -2540 -7749 0
-7247 4870 2503 0
-4548 -2375 928 0
6790 -5668 973 0
6162 7277 3321 0
5080 -2585 8430 0
-1447 7159 4760 0
1746 -2276 3745 0
659 8321 221 0
9845 -9388 -1010 0
-3664 -3956 3763 0
-1734 -4370 -2370 0
-8628 3624 497 0
3479 6112 4494 0
2542 -3052 -9800 0
-2791 -313 9654 0
-540 -9593 6084 0
-8030 1746 9736 0
9492 -6968 2283 0
7506 -2934 1880 0
9403 3214 9939 0
-5111 3413 -9679 0
-476 -2420 -4222 0
-706 -1351 -9463 0
291 -9721 8248 0
-3262 -2291 9061 0
-2805 4590 -1265 0
-3706 7513 -8799 0
-7463 -1071 -589 0
-7321 -7667 -938 0
-380 6974 -7137 0
6011 5786 -8836 0
8165 -6545 -5818 0
-9303 7624 9642 0
6688 -7573 -6701 0
694 123 9087 0
-269 -3062 1193 0
4474 1635 4239 0
5759 5354 425 0
8383 6978 -6618 0
3984 -6957 -7711 0
-9237 5532 1475 0
3256 9948 -1235 0
-125 6922 -8514 0
-1740 3391 -4187 0
-7264 164 -690 0
-21 5390 4278 0
-7374 1045 -2420 0
4003 -2755 2952 0
2298 -985 7749 0
-2572 -7175 8615 0
-3957 -7645 -2853 0
7475 422 8956 0
-8017 -7835 8398 0
-9230 -4779 2384 0
4972 -8507 -912 0
-4636 3656 -4878 0
-7854 1296 8515 0
2709 1204 -3110 0
7505 8566 1129 0
7514 -5391 8873 0
-7502 -1047 -8489 0
-8990 6424 -1874 0
-9713 7892 2076 0
4191 2932 6887 0
7694 2146 8632 0
271 6226 -8512 0
1115 -7995 5902 0
4053 3468 -6032 0
-2216 -9402 979 0
-8959 -1300 2230 0
7215 -1723 -7924 0
239 3262 -2688 0
9700 2839 6098 0
-52 -6590 -3647 0
-120 149 5264 0
-8059 -9346 -2061 0
432 5609 -1052 0
-1803 -249 5048 0
4932 -1734 -2706 0
-2082 1763 4055 0
-8946 7394 -5191 0
7437 4781 -7123 0
-8291 -5389 6661 0
-8089 -1095 -4903 0
4852 3162 1366 0
7518 8654 -4757 0
139 -8330 8813 0
6421 5134 5817 0
-9708 -36 -3743 0
-6820 -6105 2083 0
346 -7831 -8395 0
-6578 -4956 1524 0
197 6846 3482 0
8070 -8010 -3346 0
-4640 -19 3171 0
6607 6588 -1131 0
-8171 -1195 2220 0
4994 -3041 -1335 0
-1600 -7660 9381 0
-3942 4516 5546 0
-8378 -9974 7621 0
3754 -5314 -4443 0
3641 -8823 9753 0
4231 439 -3667 0
6733 -4365 1804 0
5968 3614 -1355 0
-5058 7335 -10000 0
-3578 7158 7400 0
-1065 526 -3480 0
9076 -2918 5191 0
3079 2103 2469 0
8446 549 5015 0
-2391 -5534 7189 0
-5881 -8755 -7572 0
-9794 1365 5441 0
4890 -4506 -1896 0
1256 3021 2948 0
-6908 4352 -2606 0
3662 8737 -1150 0
-2905 2963 336 0
2576 7299 -403 0
-1577 1674 6008 0
-7815 -8418 -9759 0
-5858 -991 -4013 0
3324 9196 8599 0
4380 7923 -2970 0
563 4520 9276 0
4803 -9748 -2518 0
-4425 -2902 2551 0
-2776 7244 -6265 0
7033 -1480 -7908 0
4277 8028 5445 0
9238 2952 8311 0
7586 -2428 -5838 0
4704 6634 2047 0
-8952 636 1398 0
4618 -8445 -2652 0
-1121 1816 450 0
-7413 -7740 9782 0
-8217 -9074 4875 0
-632 6439 -5971 0
-7354 5525 -3666 0
4351 1509 -1129 0
1980 9949 2991 0
4816 3451 -2830 0
-7133 -4734 -2195 0
3301 3554 8841 0
-9683 479 4798 0
1292 -5768 -2171 0
3531 3328 -3399 0
-7799 3218 -9002 0
3059 -7776 8924 0
-5036 2533 -3630 0
-9397 -4308 -7994 0
3065 -3182 -3161 0
-3406 8845 -3808 0
-3801 7621 -6403 0
-9162 -5456 -6539 0
-5626 5497 -4838 0
-8389 8046 1042 0
-4028 -6951 -9983 0
5741 -4305 8402 0
-1582 -4023 5778 0
6609 4211 -8991 0
-6623 649 3665 0
9975 6819 -715 0
-7528 1599 -3342 0
-4422 -7673 9102 0
-7798 -7674 -6733 0
-7700 -4165 7195 0
5740 -5649 -4274 0
-1609 8462 2255 0
567 -126 -3479 0
-8187 6065 -3087 0
7643 660 8817 0
-4548 7825 -761 0
-7651 -142 -5626 0
-1034 5622 2679 0
-9687 -2241 5565 0
8588 4736 3228 0
5741 -5952 4454 0
1740 7486 4938 0
3106 1691 -5093 0
-2394 -5516 -6561 0
1913 1420 -7089 0
5733 -2360 -8506 0
-1293 -4891 -78 0
5210 -5541 -9928 0
6294 -8937 4409 0
1459 839 -4577 0
2039 7159 2197 0
-9218 4592 1470 0
-145 -8932 9323 0
808 -6122 4456 0
-3580 -5653 4207 0
6339 -8592 6500 0
2369 -4819 -8495 0
5003 5447 -2497 0
209 994 -316 0
4905 7709 7765 0
9679 4236 7189 0
-51 9768 5788 0
-6677 5547 6078 0
-1363 -362 -8843 0
720 618 -1713 0
-1314 -60 893 0
258 -2433 3194 0
9461 6526 -525 0
6885 -159 -5550 0
-6840 9045 -5212 0
-7213 -7038 3099 0
122 8959 -4290 0
-8640 -7627 5305 0
-632 -3295 7140 0
-2132 -6143 -1735 0
9055 4190 -5943 0
9923 4903 9400 0
7587 4099 -2180 0
-2353 4679 8853 0
-5280 6764 -675 0
1111 -8137 9037 0
7007 -9814 -4651 0
3102 7839 -331 0
-1916 7812 5283 0
7895 -9037 1796 0
-3580 1555 1255 0
2175 5048 -4845 0
-9644 -6785 5817 0
-6299 620 -6571 0
-2149 -3320 -5582 0
-6966 -7653 7467 0
7115 -7361 -9316 0
-1446 3925 -4305 0
3531 2327 1452 0
4067 3075 -1791 0
5197 3101 2921 0
-6071 448 -7177 0
-3834 -9494 2231 0
6878 -1227 4901 0
3032 -8749 -3393 0
7229 2726 714 0
6531 8206 -5834 0
-6955 3114 -8107 0
2364 -4311 -479 0
-5536 -8598 -1007 0
-9316 2167 7246 0
9303 545 -5713 0
2232 -7554 -8198 0
-4237 -4131 -4253 0
-325 -9688 -7446 0
9337 855 -4608 0
-6189 -5396 577 0
7790 8801 6508 0
7418 -4919 5730 0
8095 -980 -7116 0
-5250 -6930 -9347 0
-2101 -3298 -354 0
-7495 214 1086 0
-5604 -7151 4631 0
-7585 963 1096 0
4500 -8536 1562 0
-28 -323 -9102 0
-8293 1739 2630 0
8284 9596 9195 0
-9839 -8568 -2253 0
8454 -6772 -2349 0
9493 3698 5397 0
-5719 -2229 5853 0
8178 195 2315 0
-9729 5118 487 0
67 6306 -5171 0
119 -965 8022 0
1379 2567 5856 0
-894 3886 3592 0
-6571 -9567 5436 0
4056 -2038 -7524 0
-1036 -3690 3685 0
7196 -5764 -5673 0
-2423 -4946 2793 0
-1380 3507 -8235 0
-8711 -4871 2274 0
-7433 -4621 -2837 0
-6511 -3554 -3613 0
7293 -9658 -839 0
-9259 5358 3825 0
3343 -7878 -5323 0
2872 -1479 -3636 0
-2869 5145 5473 0
-4449 8525 3255 0
4958 1053 -6849 0
-4894 339 -4001 0
1510 -598 2143 0
4836 -7970 8923 0
-5075 3555 -2924 0
811 -4523 7496 0
-6161 -2337 7660 0
1079 7800 -9234 0
9163 -3002 7374 0
4555 -8571 -3221 0
9671 4855 -3788 0
9843 -7548 -4196 0
-2732 -693 -7585 0
-2664 6725 7451 0
3623 9592 6448 0
-8831 -6634 504 0
7207 2038 8319 0
-5816 1636 -6462 0
5702 -8156 -3525 0
8880 -7399 -1016 0
2867 7035 7847 0
665 -8883 8052 0
-9006 -6580 -1226 0
-2647 2027 -1228 0
-8104 4051 -894 0
3301 -1654 7615 0
5736 4354 9951 0
-2516 -8087 8959 0
6386 -3280 -2495 0
-3837 9568 -656 0
17 -3652 -5380 0
-6206 -5833 -7417 0
6065 -7763 -7965 0
1131 9799 -9083 0
5152 6459 -5737 0
4612 -5202 -150 0
1873 3867 4443 0
9675 -1586 7869 0
-1622 5192 -3664 0
6142 1372 -6652 0
6107 9299 6263 0
-8646 3917 4389 0
-3400 -1224 5407 0
-8498 -8725 -9810 0
3034 9708 5418 0
2982 4166 -1060 0
-7726 4280 390 0
-3749 2385 8704 0
-7578 5364 6677 0
4107 1243 1786 0
-1597 -8340 -7621 0
3133 -7084 1 0
3381 8658 -6246 0
-2317 -8162 8362 0
-7061 810 8548 0
-5308 6965 -3940 0
1367 -8680 1643 0
6805 -4561 4755 0
-423 8646 -9912 0
-7235 9313 -3690 0
3434 -3497 1734 0
7535 804 -5807 0
-2802 -1501 -5997 0
-3511 -4655 -1116 0
-9108 4510 6768 0
2232 -7919 8873 0
-2745 -8133 -4075 0
9327 951 -3326 0
3445 -9419 6465 0
1066 4861 -5166 0
-9705 7934 7390 0
5218 2682 -904 0
-2268 -816 -8131 0
510 1530 -7811 0
-9154 -5451 5025 0
8497 5193 7049 0
-5110 -1622 -6713 0
4435 -2560 5043 0
3093 -4877 2500 0
-4613 9531 5987 0
-4278 5625 605 0
4422 -3024 -8066 0
5947 5770 4604 0
6177 -1473 -4401 0
7726 8216 -1043 0
-4810 8362 999 0
3948 -3973 8005 0
7207 8600 -9296 0
-7186 -5435 492 0
6452 2315 7023 0
-4312 -9160 2073 0
-5692 1055 3631 0
5557 2083 -940 0
-6644 7226 -1694 0
8259 -9821 8159 0
3343 7059 7021 0
-2755 4748 -748 0
3370 5976 -399 0
7964 966 -4800 0
2863 -1715 3175 0
-9360 8977 2800 0
4401 -2928 -9833 0
-1262 -4206 3449 0
-2787 5453 -972 0
-9573 8427 4891 0
7402 6699 1333 0
-9549 6592 9341 0
7818 5592 8690 0
-5108 -6140 5823 0
-4303 -7700 8098 0
-2924 494 -5910 0
3705 4863 -1019 0
540 -1847 2914 0
-1551 -7893 41 0
3368 1818 -495 0
-8697 -5734 6969 0
-7532 442 -667 0
9625 -8481 6263 0
7202 -2688 -3145 0
-7963 7956 4284 0
-7700 5512 -8276 0
-9817 -4149 8386 0
9343 316 -824 0
4808 5541 -1643 0
5401 -4755 3001 0
-2067 -1693 -2621 0
8290 -398 -7966 0
-5684 -838 7630 0
-2941 -2140 595 0
-9113 -1756 2665 0
9772 -2736 9352 0
9026 -8115 8895 0
3658 -2481 7133 0
-3018 4534 -9849 0
1946 -9747 -8322 0
-772 -2042 5889 0
-5918 4694 1660 0
-3477 -7678 -8741 0
2054 8067 -2497 0
8948 -6643 -4029 0
2584 3679 4910 0
7353 6276 9702 0
3790 -2529 6860 0
-7262 -8802 -2845 0
1115 -4862 -2156 0
-9962 5461 9440 0
-7004 8074 -4976 0
2263 -9506 3823 0
-4195 -8829 -7741 0
7620 -1155 -285 0
2361 2049 2663 0
735 -7764 -2732 0
-1173 2688 511 0
446 -7518 -3398 0
-8892 8974 -3941 0
-275 -3266 -2055 0
1442 4710 1701 0
1252 6379 -4103 0
-638 8117 7787 0
6340 -3935 -8354 0
376 6374 3849 0
-6140 9512 -6526 0
-740 -7229 -3541 0
3675 2502 2406 0
-4417 8181 -6744 0
-1735 2909 -6606 0
4979 4859 9817 0
-5576 -7379 5584 0
-1969 -1493 5593 0
-6909 -3762 7382 0
-6311 4360 1897 0
-936 -1873 9565 0
-3292 1225 -3356 0
-6639 9394 4776 0
-4357 4188 4640 0
7030 7637 -7108 0
2970 8726 -6333 0
-30 -5806 -5840 0
-5343 -2539 7428 0
-3350 3082 7683 0
6406 -3013 2467 0
-3961 -8037 4174 0
3119 -2850 8516 0
5248 9102 6598 0
-8125 -8282 3003 0
-7782 -3866 -8883 0
-1250 -8477 -9276 0
4125 -3755 -8136 0
-3249 -2341 4118 0
-4622 -4523 9201 0
-9646 2119 1992 0
-3080 -7483 6972 0
-9101 9385 -91 0
-2214 7384 -7327 0
8723 7529 -5177 0
5905 -9503 -6906 0
-585 -2086 8024 0
-4153 926 8310 0
-5978 5097 7758 0
-8884 3213 -3158 0
9677 -8417 603 0
-6674 5821 1071 0
-5676 -5701 2982 0
-1385 2930 3228 0
9189 -2129 9563 0
4300 2746 -4646 0
2190 6755 3184 0
259 9884 -6047 0
5716 2500 9394 0
-7551 -7109 -4559 0
366 5384 8450 0
-686 8033 -8609 0
5045 7058 -43 0
-6834 -389 7718 0
-6312 89 -2377 0
-3615 -6911 789 0
-6178 9323 235 0
-503 6516 -3078 0
8737 1175 556 0
2117 -2838 -8471 0
940 -4876 -7816 0
-4982 7593 4770 0
693 4845 -3278 0
-6873 3921 298 0
-1973 -9417 9567 0
8534 7707 1195 0
3785 -9677 8105 0
1310 -7531 504 0
6490 7055 5245 0
-2861 5981 -9558 0
1845 -3695 7095 0
9489 2288 -9178 0
1015 8919 3323 0
9436 5698 -4416 0
6275 -8328 9864 0
8171 2354 -8434 0
3559 137 -2418 0
5030 1108 -1733 0
-6795 5320 8644 0
7553 5060 -8457 0
-819 -3924 -7525 0
-2755 -7030 8206 0
-9752 -355 -44 0
1314 4921 -1834 0
-8206 7711 183 0
-8972 -3546 5592 0
-4493 -5180 7860 0
-8194 8848 8657 0
4665 1175 -7389 0
-1753 1641 -2935 0
5862 8508 -4575 0
-5783 2817 4500 0
-2523 5553 3937 0
-4969 -7762 -6313 0
6253 -8365 -6148 0
4610 -2848 2135 0
-3093 -4213 6729 0
5538 1364 -5558 0
4895 9402 4329 0
-1753 -7198 2134 0
3828 5266 7840 0
925 8624 6921 0
1858 7216 5132 0
447 -8861 -1095 0
9730 -830 8722 0
914 -530 8274 0
-1352 -1354 6902 0
2635 7354 -91 0
-9902 -7038 6267 0
-7346 -8454 -7967 0
3673 2942 -3324 0
6795 562 -928 0
4081 5846 9504 0
-4173 3671 -2199 0
2937 -9118 -2593 0
9919 -6504 -7569 0
2382 5636 -6356 0
-2286 -6744 -9572 0
-5099 -6507 -7708 0
1854 -7222 9193 0
2125 -9801 6236 0
4635 -7255 2640 0
8659 -2030 3984 0
8281 -6364 -566 0
-6503 -6805 -1977 0
5962 -6108 5594 0
5127 -729 -2107 0
-1479 -3717 -9672 0
8611 9634 4537 0
-3342 -70 -9550 0
-4212 8532 5999 0
5107 -4208 -8782 0
8522 506 9087 0
3893 633 -3942 0
-7653 9191 4594 0
8123 5425 7507 0
-6145 7765 6157 0
3385 -470 -8223 0
-3375 -3247 4331 0
-7145 -9783 -9466 0
1320 -5592 739 0
3425 -7930 2501 0
8504 6082 -2214 0
5323 -7011 5250 0
7218 3490 -6149 0
-8521 -3277 -8090 0
-8495 2745 6257 0
-2583 -8526 -4672 0
-8372 -8164 -5919 0
1720 -3882 7200 0
-2536 -5256 -8134 0
6778 -4382 9934 0
8270 5535 -4382 0
7018 4509 -1914 0
-3299 986 4596 0
2009 -5277 -4575 0
9257 -85 -5119 0
7960 2426 -7851 0
-3430 7795 -6146 0
1192 -3375 2730 0
-1785 9002 -4275 0
-6603 -7634 -5979 0
-1291 -6520 5583 0
9167 8662 8002 0
1470 6931 7017 0
9427 7591 -1813 0
-2852 -850 7327 0
-2317 -7151 -5071 0
-4418 7059 -587 0
9868 8881 -8063 0
4227 4861 -6614 0
-4682 8084 490 0
5691 -5854 6010 0
8496 -15 8512 0
-5054 -9022 5474 0
3782 -8945 -6798 0
-2958 -7644 -6661 0
4251 3378 -1930 0
9620 -3697 2009 0
8041 -2946 83 0
-1189 -3132 -1973 0
-9437 652 2168 0
2508 8409 -6262 0
-7389 7947 -4947 0
-1968 3076 54 0
-4964 8904 5002 0
-4022 -215 -2012 0
7041 -3307 2320 0
-7778 -9441 483 0
-283 -4939 1318 0
-8240 9479 -2148 0
613 -6339 961 0
-1200 -1946 7865 0
-1147 -4740 4969 0
9084 3682 -5482 0
-7906 5158 4880 0
2433 -6239 6742 0
8685 4246 6232 0
-1147 -3703 -9428 0
7164 4154 -9141 0
-168 7912 -2166 0
-564 6583 4155 0
-5265 -6880 1663 0
3641 -290 6052 0
-8123 5627 -4856 0
2087 -2851 -5521 0
-8891 3555 -8870 0
1559 -9395 5803 0
5013 -6704 7186 0
7341 2319 1993 0
2040 4061 -5023 0
6558 7839 -4301 0
-4215 7467 6823 0
-7057 8354 7159 0
-3371 3503 -1837 0
-4014 -2725 -5648 0
7587 -823 1384 0
4351 966 8391 0
-2159 3491 -7401 0
-6489 1470 7668 0
9167 -9819 -146 0
499 -9390 -8536 0
9908 -7804 7981 0
-202 -8291 -2802 0
-851 5219 4732 0
9269 -2076 6456 0
9778 7356 1987 0
-4593 -4810 3433 0
-2549 747 -5222 0
-6163 -7335 3160 0
-3789 8007 2971 0
-989 6016 7822 0
9824 6917 -8727 0
597 -3459 -1843 0
-4678 -1977 -7451 0
6083 3777 8038 0
1335 1961 -7177 0
5582 -8513 7222 0
-8582 -2773 4689 0
-9187 -3240 66 0
-1464 5596 -705 0
-822 7154 6140 0
-1270 -6898 -1857 0
1309 -6484 6472 0
-7202 -4271 4763 0
-4369 -2255 2934 0
-2941 4133 -7625 0
6011 -8115 7857 0
3587 -5110 5760 0
7290 -3981 -3797 0
6652 -1918 4313 0
1604 6192 1945 0
1444 -3061 4520 0
-1679 5882 -3053 0
-7526 -760 -6759 0
7241 2185 6719 0
5334 9355 8937 0
-2674 -2051 8691 0
-6057 6236 2934 0
9703 7028 3855 0
3557 -8194 1813 0
-8325 -3942 -2811 0
-6048 8223 4041 0
3578 -3820 -4440 0
4806 1453 7555 0
8333 2576 972 0
9449 -6051 7004 0
3765 -4011 4390 0
5375 1210 661 0
-6082 -107 4856 0
3873 1889 -8123 0
-4264 1587 6973 0
8713 -8730 8954 0
4073 -165 4889 0
-6385 5504 2306 0
2235 514 4341 0
5133 -8921 -4424 0
1470 3858 -1889 0
4741 -9032 -299 0
-2433 5266 4873 0
-5312 -5427 -8393 0
4488 -9475 -5038 0
-875 6471 -7493 0
8768 7279 3315 0
4868 8877 659 0
-9858 5792 -272 0
5365 145 -6266 0
4970 6271 -8422 0
-3131 -1130 2221 0
-1645 -1324 -4039 0
-6908 -3934 -8055 0
-2396 -1344 2369 0
2103 -4772 -3914 0
951 7683 -4213 0
-1949 -2323 7638 0
5812 3813 2185 0
-5909 6280 -4844 0
-3624 3337 -1720 0
9069 -9431 -6728 0
-7046 7645 5688 0
1776 -3685 -1460 0
-1197 772 6681 0
-3168 -1866 -3416 0
7774 4621 -5708 0
6501 9334 -7949 0
-183 -1766 4741 0
8468 -6436 -7721 0
9439 2378 7788 0
-1637 9157 -303 0
1348 -7965 8534 0
-4388 -6576 -8992 0
-1960 -6439 3871 0
-9916 -5786 6947 0
-5562 6168 2763 0
411 2450 2349 0
2610 -916 -6837 0
2336 3101 4843 0
-6265 1595 -6784 0
4963 2296 -6192 0
-6620 -3130 -4731 0
-4807 -1558 6878 0
-5154 9156 -4519 0
-6212 9489 -6772 0
3117 -4098 -5572 0
576 -7859 -7192 0
9231 722 -2984 0
-1000 7421 -5021 0
8124 2586 5844 0
-1499 5517 -1926 0
-4623 -5805 -7944 0
-6520 -8203 -3087 0
-6600 3588 3990 0
6438 -8846 -6999 0
-2814 -1917 -1555 0
788 -9549 -2243 0
-6092 -8471 6170 0
5628 4431 4979 0
7639 8985 -8847 0
9450 3403 8951 0
2397 -2749 -2450 0
3564 3441 7708 0
9664 102 7172 0
1191 4020 -5731 0
-1658 9548 25 0
5213 -1968 1538 0
-6857 9658 3594 0
-3137 4511 -8903 0
-9732 7970 -7887 0
-9382 8338 8108 0
9783 925 -8528 0
-4429 -2086 1221 0
4050 -6425 9566 0
-544 6679 7854 0
-8983 -6556 -1213 0
2189 -848 7578 0
-6910 7199 -9747 0
-825 -6327 -3129 0
9064 -1603 -4445 0
-4756 -6988 -4947 0
-1310 -6027 -5902 0
8558 8168 -7108 0
-9081 1277 -3824 0
-1659 6503 8086 0
1710 1535 6779 0
3641 -5173 -1176 0
-5575 933 2746 0
506 5153 5307 0
-1165 376 -7974 0
-8337 3439 -7220 0
6585 9299 4397 0
2292 9426 -7767 0
6012 5900 -2114 0
-2941 5004 -6792 0
-3787 3099 -7240 0
-6889 -3363 -6607 0
-7295 -1311 -829 0
5657 -6639 -3348 0
-586 3267 -1790 0
3693 -7258 8972 0
-6496 -4387 -2110 0
7703 6779 -5290 0
5791 7879 -770 0
6743 3661 -3818 0
8161 7772 -2261 0
-2835 -6586 -3343 0
-8191 -1613 -1611 0
-8978 5873 8736 0
8535 7081 -4040 0
-1557 -3856 -7933 0
8354 1632 -9510 0
-454 1322 2163 0
-1855 4864 3415 0
2307 -9072 -9436 0
2197 85 6515 0
-3891 1578 983 0
6598 8336 -5288 0
-4954 -3127 -2858 0
902 -775 -6332 0
8414 182 4670 0
1468 -6563 6815 0
-9577 9573 6430 0
5868 -55 4399 0
4984 3378 8802 0
-2816 -6947 1671 0
7739 7258 -3178 0
-3500 769 4411 0
-1063 4501 -1410 0
-460 4845 -6232 0
1270 9794 3203 0
-6437 -3137 -2074 0
-6062 -5031 3586 0
-3981 3803 8042 0
-2816 -2235 1378 0
9679 8787 -7426 0
-3967 -2122 -1973 0
-159 6447 -9718 0
-9852 8666 -8630 0
4018 9205 7703 0
-5895 -9495 3236 0
-2692 9221 -7488 0
9723 1266 8881 0
-5549 229 3242 0
9934 9327 -8717 0
-5617 9038 -7546 0
-6210 6728 -4130 0
-8504 5959 -7565 0
-1638 8853 -8774 0
9247 38 7246 0
-1447 -8544 311 0
6332 655 -8843 0
5390 -4804 7973 0
9648 -7846 -3479 0
-2744 9323 -7776 0
4844 -5251 -3273 0
-1700 8089 8607 0
1156 -108 9670 0
-488 3989 6938 0
-9050 9199 -253 0
8998 -3138 2240 0
-2457 -2103 -3177 0
7655 5515 -7504 0
-9229 -7759 -2406 0
5917 -6984 -5655 0
1523 5376 -186 0
-4628 -5668 739 0
-3688 -323 -481 0
-8688 8265 7171 0
-3847 -5404 -6240 0
-9443 -8814 -3809 0
-2569 3697 -9295 0
3480 -7525 -7253 0
-988 -3481 -1259 0
2644 8764 952 0
4774 -5191 -9402 0
2631 3860 -8817 0
-7560 -2762 -844 0
-1507 8357 -6960 0
6694 7947 -3959 0
2181 8680 3515 0
-1111 6183 7460 0
8370 282 2105 0
7538 6309 6379 0
5252 -3764 -5665 0
7684 4064 2746 0
-6583 8962 -6364 0
-3196 -3072 -7884 0
4909 171 1089 0
4412 -7761 -2182 0
-3602 8105 9657 0
491 1438 -5553 0
-9421 8300 2294 0
-8060 -2092 494 0
-6756 -3164 -7606 0
-1189 -7259 -1368 0
-4432 -7935 474 0
4391 6538 8611 0
-5740 -1732 -6660 0
-3503 7030 -9174 0
6470 -2788 350 0
2600 6563 8072 0
-3096 1560 6871 0
-8257 1517 1410 0
5545 -8503 -925 0
7183 -9655 2602 0
3684 8804 5294 0
-6581 9662 2365 0
3865 -6249 -9858 0
7396 4266 -9541 0
-2156 2796 -2213 0
-5824 -9186 -7575 0
2124 -6720 3483 0
2014 -1415 -5818 0
-6332 7328 -1456 0
-193 44 -7333 0
1001 -107 3432 0
8017 -4702 5802 0
-5916 5857 7546 0
1868 840 4979 0
9766 7087 -1831 0
3767 9130 7062 0
3766 -2773 5938 0
-3597 -8223 -5244 0
-7174 2821 8080 0
-8697 -348 -7442 0
-3998 5867 -7738 0
7224 4195 6974 0
9332 -2988 -6240 0
-954 -1659 -7287 0
9171 -560 7281 0
3529 2697 -2853 0
4750 -2457 6755 0
4846 -6475 5368 0
1567 4799 -4542 0
-5264 -5988 8593 0
-6677 -3444 7911 0
-8549 -7671 6618 0
622 2687 8768 0
-7027 1979 7681 0
2796 -2563 8388 0
1591 -3438 -2744 0
-4139 -6480 -1754 0
-2086 8991 2560 0
-388 -6598 -8281 0
-4954 -2089 1485 0
-8822 7255 7231 0
150 -3689 1250 0
73 -8065 6710 0
5411 -6116 9303 0
-9270 -7140 271 0
-2798 4768 -7488 0
8825 1659 -2400 0
-2769 -5907 -7964 0
-9038 -6148 4679 0
-9746 -5830 -3449 0
-8104 -8044 5368 0
4898 -4232 -5710 0
7833 -5175 5659 0
5293 8608 793 0
-5506 -4975 -7296 0
-677 -4365 7697 0
7460 6234 -482 0
5507 2544 577 0
6640 -868 2438 0
409 -9195 -3060 0
-2055 -4876 -226 0
-8941 9218 3222 0
-4747 9871 7034 0
-2961 -8049 4660 0
8879 -1475 -4411 0
-4092 -1847 9744 0
1259 1658 8146 0
5213 -6955 3812 0
-7815 -4054 -955 0
119 7404 -3388 0
9371 -6294 866 0
6201 -9503 -9047 0
-647 -3491 -4582 0
2515 -9049 4763 0
-5454 -6703 8023 0
3151 720 -8795 0
-2559 9756 -574 0
-9582 8723 5053 0
-4706 -1730 6464 0
5491 -9442 6619 0
5761 -5942 3108 0
7562 -316 -6277 0
-587 -9747 7947 0
9207 -1607 9002 0
4516 -9287 -9588 0
2727 -9118 1793 0
-8475 -5164 6466 0
6928 -4355 -2074 0
8720 153 2569 0
-9343 -1188 1220 0
-8695 5354 2709 0
-7631 7293 -9439 0
-3182 5037 -4422 0
-8456 6853 7443 0
4269 -7695 4924 0
2606 295 3937 0
5839 -9628 -2726 0
1789 -4571 2332 0
-1100 8622 -8373 0
2310 1071 -3676 0
7264 7490 3137 0
2362 7913 2087 0
-2448 6315 -717 0
8095 3047 -3719 0
-8073 -201 5579 0
2817 5415 5380 0
-1558 -9404 -5245 0
-3478 8000 -6328 0
6979 5322 8634 0
-877 -3190 -9661 0
-2769 -6947 5887 0
-6516 -6602 1847 0
3703 973 -8392 0
2339 9057 514 0
-349 -8538 -5146 0
-7849 9417 -9944 0
7458 6006 3615 0
7077 -1521 -1594 0
5870 -4908 -9700 0
2810 9530 -9323 0
5986 9455 7373 0
60 1211 8131 0
5306 3344 -9173 0
-5133 919 3783 0
4262 -1073 7852 0
-2871 8349 -6470 0
-7916 7670 -7038 0
-5733 2038 3056 0
-9582 -1295 -9404 0
9291 7124 1428 0
7742 -1155 -9003 0
9863 -2551 -9955 0
-7102 -6407 4282 0
-8982 -1171 3861 0
8578 1297 -1734 0
3261 7394 -4348 0
-8682 -1127 -5214 0
5334 8352 4005 0
5025 7155 469 0
4173 1585 3047 0
2231 2356 3297 0
-7589 -2669 -6781 0
7866 4075 -8002 0
521 300 2671 0
9351 -7438 -6786 0
-9605 6467 -9716 0
9435 8723 1599 0
-1509 4299 8453 0
-4445 -2803 4716 0
-8371 8068 -5950 0
6417 6066 -8165 0
-4608 2414 3199 0
9065 9510 -2020 0
4531 3329 5050 0
8823 4969 9051 0
5887 -2688 -4368 0
9476 3010 -2936 0
5097 -7361 845 0
2655 -4795 478 0
-319 3627 851 0
9005 849 -5805 0
-1256 7217 -7821 0
-7652 3612 -5681 0
753 1777 578 0
-3815 -9256 -7548 0
-6128 -7260 1174 0
-7907 -7313 8349 0
-64 -4290 -5146 0
-9668 -953 -8917 0
-2306 2603 3424 0
3196 -760 621 0
2217 -554 8543 0
7863 -6256 -5081 0
1880 5674 9163 0
472 8993 2964 0
-9153 -8037 4813 0
3301 -4214 -2492 0
6366 8233 3785 0
479 4317 2917 0
4662 -8208 -1408 0
738 3679 -851 0
-7704 3896 8488 0
-2177 -5758 5238 0
-7409 -6847 -4842 0
-1230 -2490 4055 0
1348 8540 6698 0
6149 -1295 7857 0
-5278 -1338 -2891 0
9682 1876 2431 0
2491 9190 8296 0
1154 563 -9050 0
-219 3478 7654 0
3772 3937 -5192 0
8100 -620 -9774 0
4593 3509 -291 0
3940 -2296 -8289 0
1478 6642 -1154 0
9027 -8187 302 0
-4121 -2966 -5683 0
-1867 -9924 3535 0
-9835 7297 8430 0
3958 -2502 4963 0
7819 -7313 -2673 0
-2685 -658 -5940 0
-2843 -9481 2674 0
4125 1518 6515 0
-8268 -3538 -764 0
2469 -5353 6112 0
-4160 7658 7551 0
-2823 -2976 -3072 0
5917 -9176 5260 0
5159 1720 63 0
-8662 -928 2879 0
6211 6968 9828 0
-1781 141 696 0
7129 -1052 574 0
5114 -1396 -9882 0
6748 1265 4391 0
8438 -7 -7612 0
-9241 478 4412 0
-1462 600 9540 0
-9667 1549 -981 0
-8358 7924 2828 0
1394 -6801 -7559 0
3337 -7591 -4686 0
8431 -8494 5433 0
-5930 1628 3638 0
-4879 5639 2151 0
5742 9396 -9338 0
-5945 -1028 -9112 0
-958 4747 1865 0
-8771 6279 -4903 0
-1209 5223 -3536 0
2941 -28 504 0
-4863 4512 9026 0
2927 -4264 2505 0
8892 408 -7549 0
9739 8645 -4723 0
-2839 -1563 -9603 0
-3727 909 7840 0
-4479 2308 8254 0
9895 8852 -8210 0
-9682 7711 8812 0
9509 -549 -8170 0
-957 -2072 -137 0
-5725 -2504 7395 0
3247 7396 -8854 0
-192 -6758 -7081 0
8596 8139 6935 0
7440 -5240 3126 0
-1020 -3535 -7984 0
-6460 -82 5410 0
-4603 -124 -9414 0
-7995 9363 -6616 0
-1920 1162 -4716 0
-1931 1263 7325 0
-4062 -5995 5231 0
-5743 -7788 2152 0
-3660 -7688 -5673 0
-481 1905 -3623 0
7870 -3862 7836 0
4766 -3539 -7433 0
2168 -3011 -8150 0
9714 1761 -1660 0
-7074 -8009 4032 0
7773 -1943 -6918 0
-5450 -4652 -7746 0
-5424 -697 4933 0
8736 -4911 3765 0
-1637 -9535 7590 0
236 -3280 7751 0
4827 930 2379 0
-33 8562 -8487 0
-3287 241 6538 0
-4712 2486 -1659 0
3722 -6007 7609 0
-366 -4569 -4496 0
3150 -8712 5635 0
7898 3890 2799 0
-4523 -305 2270 0
2935 9850 -3474 0
-4681 3448 -5970 0
8713 -1235 7690 0
-8253 -8378 7696 0
2505 2642 7130 0
-8377 -7330 9946 0
-6051 6660 4881 0
7935 -2670 6522 0
-6793 -9423 -4364 0
6931 -6100 611 0
-6524 6914 6208 0
-3351 -8381 9428 0
-7101 8105 -8144 0
-3285 3721 -6240 0
-9380 -589 1350 0
-6691 5216 4039 0
-2261 -1291 -8851 0
-4444 5007 805 0
-1800 8878 -167 0
-4034 -3267 -3240 0
-5502 2321 -1737 0
6184 9736 308 0
159 9135 8872 0
-4760 7711 4619 0
-1981 -6345 -6653 0
7161 -3970 -5498 0
-8882 4133 -9987 0
9190 -2021 4194 0
-1499 8251 6691 0
2185 -1727 5878 0
6134 -852 -6229 0
8045 5277 3372 0
9970 9644 7945 0
2831 9902 -6142 0
-7656 3987 3052 0
-5165 -2065 9444 0
-4284 -7190 -4381 0
-4415 1837 5711 0
-855 6490 -8930 0
2156 -2836 -1314 0
-255 -5596 -4426 0
8251 8872 7586 0
-1228 4204 686 0
-8106 6765 -1742 0
417 7663 -9070 0
8658 -2527 -236 0
-333 -982 1602 0
1358 -8949 -8178 0
-3406 -8296 -425 0
6675 -1654 723 0
45 712 9942 0
-6238 -4915 -3292 0
8702 -4573 2034 0
6298 -5388 7005 0
6550 122 2153 0
7210 -3779 5951 0
6053 -2878 8390 0
7641 -5497 5049 0
694 -5307 -9776 0
-9057 -3730 1039 0
9077 792 3652 0
-8297 -6350 -359 0
1106 -1393 -6274 0
-1096 -9847 9024 0
-5235 5825 -8474 0
998 3987 -1476 0
3949 -8378 533 0
-8019 -6893 2945 0
8586 -1056 -8083 0
-5711 -9651 841 0
7715 -3064 -8000 0
9286 3632 -738 0
7726 8160 -6319 0
-3598 1091 1251 0
2928 3501 9457 0
-188 5946 -4852 0
-3575 -3578 -9835 0
2336 4854 8799 0
5052 -3224 -5030 0
6230 4245 5519 0
8478 1629 -3334 0
-263 -7435 -4742 0
-6700 4202 -445 0
4086 2051 -280 0
588 8973 -2883 0
-2848 389 -2292 0
7328 5389 3926 0
-579 3658 2351 0
-8531 -239 -7131 0
4647 -4397 -4034 0
9739 5600 7584 0
-7713 -5383 -1186 0
7384 -15 -8600 0
5368 8849 5262 0
-6789 -6342 3007 0
-7263 2605 7883 0
-5819 -1363 7244 0
-4572 -7570 7118 0
9111 6478 9857 0
-3960 -5357 419 0
-8880 -7269 2716 0
-3422 -2999 -2882 0
3209 6541 -8917 0
8816 4953 4192 0
-1135 -7423 -3919 0
8416 -5875 -2095 0
-9940 3597 -3201 0
-8852 -8067 3776 0
6967 8949 1853 0
-389 -3275 -2423 0
3000 3894 4520 0
-2719 9571 6496 0
-8952 8519 -2822 0
-7469 3287 -3782 0
-2160 -98 -2468 0
-9318 1683 -9480 0
-1284 -4639 -1924 0
7191 -2449 2683 0
4925 -876 -5795 0
144 -4855 7733 0
693 2243 -1183 0
8560 1405 -4270 0
-5243 -6976 4508 0
9936 -4261 -2311 0
-4576 1289 -1209 0
-9348 -3305 -1427 0
-8263 -9311 4697 0
4148 7510 4920 0
7232 -5273 -7117 0
9115 9232 5817 0
-9354 3121 8223 0
8499 -3642 4411 0
9147 -487 2712 0
-9623 1008 9731 0
856 4137 3560 0
-11 -6574 1746 0
9966 -9527 1531 0
8586 -9580 -9549 0
5416 -2477 -2175 0
-2634 5831 8280 0
4014 2001 -2738 0
-1254 71 -5712 0
-4219 9530 996 0
-2685 7367 6481 0
1544 1971 -1426 0
311 6070 4180 0
-5625 -7481 8779 0
9823 5817 3565 0
1739 4793 5320 0
-7143 -2521 -4020 0
5250 345 2831 0
-3870 -3653 157 0
3947 -1984 -14 0
-8932 -6964 -950 0
-326 -1621 -7780 0
1767 3695 -8469 0
-5002 -9048 6882 0
-5757 -2180 383 0
4552 -5738 -5840 0
5071 -1965 4814 0
-1256 1666 924 0
-1384 -6942 -7967 0
1807 -8478 -9139 0
-29 -8870 106 0
7111 4021 -772 0
-8950 -1064 -2246 0
4399 1505 898 0
9777 -8336 -4082 0
-426 9288 5501 0
-6672 -9163 5401 0
2223 882 -1835 0
-375 6388 3822 0
1120 -1971 8639 0
-6990 612 -877 0
5632 -6518 -5439 0
8811 4901 -5454 0
-7060 8926 -1848 0
4188 6721 -5517 0
9916 9397 1984 0
-1168 4510 -4114 0
-2883 5540 -8955 0
7129 4799 6766 0
9819 4215 -4860 0
-1814 -9809 -480 0
-3503 9820 -8580 0
8948 -7679 3660 0
-9069 -6672 1843 0
-9062 8302 6359 0
605 4444 1712 0
-2452 4869 -3674 0
5719 7944 -2919 0
-6241 6087 7808 0
-8696 6041 12 0
-9999 1492 -7331 0
511 -6274 -8980 0
-8656 746 -463 0
-6603 3581 -3825 0
4009 -8456 527 0
6146 2702 -3 0
-4774 -1010 4373 0
4177 -2320 7676 0
-4835 -8555 853 0
7189 -1994 3843 0
-3365 -7845 -3858 0
-5568 3081 1196 0
7064 4680 1940 0
2412 4735 -873 0
-87 2325 9778 0
6552 9671 445 0
882 2250 -4176 0
-1100 -6792 308 0
5513 -2271 -4367 0
725 -1926 1073 0
316 -8520 1334 0
7801 -5497 2145 0
-75 3510 8433 0
-949 2531 8349 0
8991 6032 -9551 0
5830 -151 9672 0
-9236 -6267 -8319 0
2758 1691 -3611 0
-931 -2248 -5069 0
-7073 -3811 -1228 0
2427 -5861 -6419 0
9046 416 -3337 0
-9458 4455 2998 0
-5200 -4375 9704 0
-4506 -8043 3445 0
-9819 -5838 8931 0
6628 5061 -5582 0
8544 -5479 1918 0
3572 6560 7909 0
-9383 5714 -9401 0
-719 7333 9580 0
-5526 -6776 5830 0
-821 -7597 -3247 0
5187 1217 -3552 0
-5837 7774 -62 0
-338 4817 5181 0
3142 6197 9840 0
-7966 6893 1005 0
-2728 -8376 -7041 0
340 -1006 -5112 0
9533 -7296 1692 0
-2530 -6466 -7707 0
-6735 -2161 -6790 0
-3459 8129 -8487 0
9614 -6456 -7542 0
9999 8536 -393 0
-1000 -128 3115 0
5608 6663 -3293 0
-3902 -2312 8073 0
7977 9393 -3352 0
6374 7605 1944 0
-4325 3818 -2585 0
-7996 -4644 9124 0
1587 4184 -9544 0
-1209 9194 4403 0
-5307 -4142 4661 0
-8764 4032 -7706 0
2411 7302 3539 0
-2981 -961 -5255 0
-4611 5041 4140 0
-31 5641 6768 0
4535 4011 -4868 0
1419 -6189 9901 0
-6762 8476 952 0
-1589 -5223 9117 0
-7316 -1174 1340 0
-1099 8033 4550 0
1635 -4685 7913 0
-4515 1470 2573 0
3625 1178 6753 0
-5131 8897 -9464 0
-9638 6095 9398 0
-6964 -4 -636 0
-4301 -3449 6890 0
1139 -4073 6350 0
-4432 9992 -5882 0
31 -1107 -8813 0
-4750 -5112 6783 0
6350 7634 9588 0
-5339 9586 8522 0
1790 7062 8314 0
367 -8962 -256 0
-6837 -8263 1056 0
7414 4377 -6510 0
2465 4649 866 0
-8090 5382 -842 0
-3796 -6418 -727 0
5839 -4218 -260 0
-9060 -2327 -3272 0
6455 1263 -7709 0
-2458 -8985 9001 0
6718 6658 -3877 0
3622 5196 -6345 0
-1900 7622 6560 0
1902 -8092 7874 0
488 8319 8383 0
-9294 -3619 6484 0
-3545 -9151 2441 0
2976 -9355 -8706 0
-9972 2299 6037 0
4611 189 1549 0
6698 892 6154 0
9705 9445 1731 0
-8384 1481 1358 0
6160 -4498 -1056 0
-715 -5648 6654 0
890 5565 -8017 0
6946 311 -2010 0
-7540 -6955 5458 0
-3095 -4116 431 0
-1499 3519 1950 0
-9389 294 -6334 0
9436 -4000 9871 0
-6370 8163 -7712 0
-1044 -5282 8771 0
-1875 -3503 1091 0
-7632 9878 6201 0
6795 -807 -107 0
-2429 3272 9412 0
-143 -4733 1092 0
-9852 7019 1353 0
-1515 -1587 -8058 0
-665 -5705 -7403 0
-6319 7769 -180 0
8745 5365 2299 0
-3713 4591 8895 0
864 2958 -5842 0
2761 3467 6457 0
1070 -6238 7250 0
9392 -7535 -5262 0
-8301 3965 -3330 0
5600 -5372 2927 0
8475 4743 -1996 0
18 1974 3430 0
-3347 5646 8158 0
-3192 8233 9259 0
4614 1697 -8671 0
-8163 2668 8244 0
-4074 9542 2861 0
-444 6120 3881 0
-6154 2119 -5161 0
4197 5028 8071 0
-383 6506 2679 0
172 -5857 4334 0
-1986 4784 5619 0
508 -6383 -3102 0
2967 -2488 7173 0
6126 -7359 1742 0
-9913 -9442 -1784 0
-8012 -3988 -8796 0
-1098 -5877 4917 0
8236 -6147 4844 0
-3735 1668 1847 0
7548 7472 -3694 0
4978 3281 -7661 0
5261 -2983 -481 0
-5229 -6173 3579 0
4974 -1681 -5640 0
-6843 -134 -9624 0
-3420 2533 2573 0
-7793 6462 -435 0
-8402 7785 1349 0
517 -3423 -4951 0
2995 -4660 -1468 0
1572 5233 -890 0
-2374 2590 9197 0
-7679 -7415 -4564 0
-7771 1461 -4770 0
-3492 -910 4982 0
-2972 7314 6961 0
-8618 5211 7172 0
-6980 -5136 -7682 0
-725 7229 -367 0
5197 -6305 -6727 0
6650 -3654 -4817 0
-4975 5935 -9271 0
9761 684 -5820 0
1686 8819 -3512 0
2967 -4826 418 0
9539 4359 -7610 0
3886 9935 1233 0
-4683 -1280 8710 0
-8429 -2658 -578 0
-1402 5022 83 0
7813 -3562 -144 0
1267 -427 1688 0
5019 -2974 -5883 0
-8662 1153 -8445 0
1216 2941 -7574 0
1723 361 5868 0
500 6179 -8911 0
9529 7227 -914 0
8542 706 7813 0
-5725 7424 -7138 0
2160 -8776 7575 0
7205 -6627 -4187 0
-6758 -3600 -9151 0
2532 9479 -2453 0
6077 7096 -5471 0
1043 5728 -4102 0
7682 -3817 -9831 0
3215 6108 8047 0
-8932 -5845 -3873 0
-9879 5322 -9735 0
-2031 -6069 -8770 0
-4150 1709 -6545 0
1281 9957 -8595 0
6510 -5360 4087 0
-1832 4991 823 0
-1064 -8888 -5330 0
-6173 -765 523 0
5434 -7643 -1502 0
2058 7643 1441 0
-6230 -5016 3060 0
-6710 -3986 -7127 0
654 -1868 -8324 0
1714 8335 1201 0
4175 -3268 -285 0
-4372 -9114 -1547 0
-7482 8216 -1373 0
5451 9589 5738 0
7044 -2448 2398 0
-9416 9154 4782 0
-4891 -5059 2820 0
2901 6780 2560 0
3862 -1474 -2467 0
6535 7765 7534 0
8695 -4737 2629 0
-1119 4296 -6672 0
841 -3231 5417 0
-5965 6205 7120 0
5699 9131 -2761 0
-9167 5742 6584 0
-8077 7598 4960 0
5492 -2707 -8271 0
2562 -9930 -1949 0
-3875 3285 -322 0
-5696 -7681 -9098 0
-8393 2618 9260 0
-8945 3865 864 0
4783 -8619 3571 0
2621 -88 4009 0
-2350 2438 -8368 0
1742 -3990 9505 0
-8010 -2480 604 0
9059 -449 7400 0
-6895 3439 3215 0
1965 4073 -1001 0
4948 -2922 -4620 0
6897 -3722 -4944 0
-9143 3582 -9259 0
-5134 -8682 -2838 0
6738 -8057 331 0
-9261 -2855 -2989 0
6265 -4730 4775 0
-9880 -8343 8647 0
-6128 1531 8098 0
5431 8116 6180 0
4970 4882 -8966 0
8638 -5303 1649 0
9170 -755 -5654 0
4699 7315 -7115 0
4438 -1198 7342 0
7786 -7530 -7678 0
2592 -3931 -7969 0
-8427 -6345 2212 0
-3810 -6341 9860 0
5655 4377 3807 0
-3582 -8143 -8538 0
3533 3453 5360 0
-5327 -1612 2258 0
9624 -747 4314 0
-9640 6959 -941 0
-4759 4793 7513 0
5030 -1685 5109 0
3179 3000 2106 0
1610 5612 1609 0
-5248 -3607 -1936 0
-3108 -6510 9684 0
4877 -8421 9874 0
6596 9634 5696 0
-2304 6159 -442 0
8398 2399 -2138 0
-88 -4455 8581 0
-2483 -7281 3593 0
-7201 -7070 -4501 0
5555 4944 7475 0
-4683 -5564 5955 0
756 -4521 6103 0
-3433 4416 -6006 0
-9385 6224 -1770 0
-952 624 -8477 0
2993 8125 6427 0
8157 1001 -1017 0
-6309 -8683 -6607 0
-2689 -9377 -1610 0
3005 -5450 8764 0
2521 -1903 -8713 0
-5845 8564 1403 0
3861 -6071 4131 0
-5359 -4948 -2397 0
-443 8001 -5657 0
-2191 5673 1703 0
9571 -5060 1246 0
-955 2768 -7326 0
-8644 -6188 -6703 0
-5475 5877 -5482 0
7291 8917 -8513 0
3172 5387 9381 0
2396 -9365 7955 0
2675 -2256 -8662 0
6352 -9133 5180 0
2687 6545 -1440 0
-4230 -8259 -6843 0
890 3294 740 0
-1840 -4448 -6837 0
7421 -7528 -5914 0
417 2499 -8349 0
-9679 -3732 -4460 0
3584 -2833 7387 0
-7513 -730 6991 0
-37 -9062 1484 0
-8382 -3875 1765 0
-6151 9376 -9825 0
3389 5531 -7264 0
3000 -9950 -229 0
9326 9963 -7370 0
1979 -6737 -5839 0
-9344 4451 2745 0
-8412 9704 -1482 0
7022 7593 -9897 0
7911 -4476 2471 0
-7876 -7693 -5325 0
7479 3754 -8839 0
-5789 -1398 7049 0
9244 -1809 2926 0
9905 -8765 -2432 0
-3066 -8875 861 0
-4506 6890 7678 0
6876 8865 5608 0
7576 -8601 1378 0
-4047 -3560 -1768 0
-6685 -7657 -3802 0
-2855 1576 -9836 0
8544 7220 9726 0
1334 682 -6264 0
-8619 -9827 7181 0
-7427 -9627 9515 0
7601 -3704 -8955 0
7790 2066 -2704 0
144 5953 9498 0
-7863 -3468 5643 0
3679 8470 -5440 0
4440 -2844 -6719 0
-1922 737 -4564 0
1822 -6950 -8795 0
1810 2260 5615 0
8186 2012 8054 0
9668 2308 4023 0
-6620 -6235 -4562 0
-1799 -3088 -7666 0
-9845 977 8703 0
9335 1390 -8467 0
-5443 4092 8056 0
444 8832 6775 0
5321 -7402 -9753 0
-2049 8837 -4683 0
7114 2830 -411 0
-8565 -6907 8610 0
6973 -9071 8740 0
2871 8195 5166 0
-2943 -217 -8809 0
-8930 389 5158 0
7762 -4105 -4424 0
-8472 8866 4723 0
4575 167 -626 0
2238 167 -8987 0
-7796 -7021 -2211 0
-5848 -4297 -9309 0
-622 6154 3190 0
1567 6297 -8722 0
-3580 -1787 -2001 0
4850 -9344 8693 0
5516 8098 -2620 0
8670 5828 -9285 0
-735 8220 -7410 0
-2003 -4436 8560 0
-4448 -2871 9635 0
-5459 -522 7107 0
-7557 5663 2339 0
-1803 2503 -4152 0
-9375 -822 7825 0
8143 8043 2574 0
-4179 3624 -9785 0
-6513 -7071 -8655 0
-5160 7937 4897 0
8473 1787 9170 0
-6247 -4545 -7077 0
285 3183 -3888 0
5290 -6623 -682 0
-180 -5913 -1277 0
9265 -9674 3267 0
7158 1850 -1099 0
4042 6444 4547 0
-6061 -8982 -620 0
-2291 -5823 -6115 0
-1830 -9490 -3272 0
-9096 8989 2929 0
-9356 6589 5667 0
-4042 -2409 5828 0
1724 -5505 -8799 0
2693 -301 -5289 0
-2269 6063 907 0
9259 2214 -3958 0
-940 -2367 -8389 0
8428 -6682 -606 0
1759 6278 -3152 0
-3416 -9383 -3533 0
-4142 -2845 -8496 0
-7480 -9466 -9910 0
-1656 -174 -1331 0
-4702 6268 2621 0
5604 5934 3300 0
-7997 7149 -8318 0
-3760 -8274 -7843 0
-441 978 9313 0
4034 -8200 -5966 0
9521 878 -3956 0
-2924 5013 2918 0
-6919 3635 -2523 0
2622 -6997 -9151 0
-9519 -9880 5276 0
7317 -7232 -4567 0
-554 -4746 -9246 0
-489 3338 3167 0
5283 7273 5238 0
-372 -8542 -5965 0
-120 2842 -3672 0
-5639 -4309 -4615 0
-5581 -7250 4171 0
-1437 -1908 2360 0
-6527 7818 -6846 0
3411 -3678 -4341 0
8838 -6120 -6886 0
7271 -3740 -8114 0
-7813 -7402 -55 0
-9570 -8383 1214 0
-579 -1268 -3844 0
7345 9409 -5833 0
5109 953 -9250 0
7022 -8080 -3487 0
-6012 2304 7802 0
8684 8736 -223 0
414 5317 -5754 0
-206 -2377 -5896 0
7938 9125 9257 0
-181 -2355 6599 0
-3611 5214 -4402 0
-719 3233 7434 0
600 -1387 -7901 0
-1327 3660 -4950 0
1225 -150 5225 0
2419 5616 1228 0
7459 318 -5460 0
2018 -4761 -3367 0
-7573 -3518 5358 0
-4726 6076 5326 0
5279 -6351 -3035 0
-1959 -5477 9227 0
-6309 -7103 -3386 0
-5916 -8019 -5586 0
-7574 -1697 -2900 0
6563 203 -9240 0
6740 -3103 7122 0
-8870 -7586 -1169 0
-8901 -1333 -7326 0
-1476 -9874 1701 0
8269 -3468 6874 0
-2770 -954 2387 0
-2366 1032 5623 0
7152 5781 8648 0
4305 -5534 8177 0
9494 -5054 5610 0
-7266 -5215 3950 0
-7679 -5193 -6076 0
3719 -5631 -8935 0
4273 -9755 5357 0
-4505 -9440 719 0
-4251 -372 -6628 0
-4618 -7507 -6096 0
-9635 5411 -605 0
-9906 6251 -5636 0
4463 -5839 7334 0
-5115 -4143 547 0
-3903 8037 -7461 0
759 -6519 5616 0
-7874 -1441 -1017 0
-7851 -7912 -4024 0
7591 -476 -5471 0
9966 -7561 -92 0
-7137 2055 3916 0
3983 -912 1031 0
-9826 -5397 4577 0
410 5239 -417 0
-7993 3393 -938 0
921 -2285 -9126 0
-5759 -8318 -4753 0
2851 9732 5807 0
8438 -4608 3786 0
4024 -9469 7473 0
-5109 -4848 3510 0
-2795 2966 5746 0
757 5017 9431 0
-9066 -4260 7117 0
9071 4417 2776 0
-2348 -6679 -3283 0
2318 -5233 9843 0
-5922 7660 3026 0
-1621 7986 6406 0
-5769 4199 -9503 0
4176 4035 -6251 0
8032 5884 4956 0
4874 5982 4611 0
9499 7195 9721 0
7694 4990 1474 0
3399 -2496 -2608 0
-6995 -3799 655 0
-1021 -3270 8516 0
-1239 -1112 4616 0
582 5393 1244 0
8313 -6736 1352 0
-1237 -3808 382 0
5971 1854 8302 0
-7856 -72 -4668 0
-3027 1909 -9712 0
7322 -2881 1036 0
-8545 605 9793 0
-2492 5497 -4922 0
-7001 4526 -9140 0
6304 -1906 -1916 0
7656 1403 6658 0
-8701 1725 6749 0
205 7510 -5757 0
-1359 2848 -3690 0
6280 7671 -6764 0
5238 3214 -947 0
-7847 -9337 3637 0
-1300 2055 5505 0
1735 1604 8528 0
6147 6163 -9450 0
-4726 -7351 1367 0
8462 3856 -8043 0
-1929 5149 -6716 0
-2537 2944 -5413 0
9661 -2282 899 0
-1496 -189 -2539 0
-884 -5395 -9248 0
3328 -5865 7302 0
5609 2260 9975 0
-2038 -5638 -312 0
6493 7829 -8583 0
2650 5251 -8022 0
5016 656 -5548 0
-8352 7206 -4680 0
-2699 310 -6902 0
7838 -1287 -5500 0
-5116 -8720 -1383 0
-9372 1962 3607 0
8920 8869 9727 0
9952 6042 7475 0
-4784 -796 9705 0
5547 9079 864 0
-2447 -4961 7487 0
-469 355 3533 0
6573 5560 -2250 0
679 7233 4433 0
-3720 -5994 9832 0
1431 9083 -2230 0
-4170 6989 -7264 0
8878 -4193 -8146 0
-6719 5386 849 0
2658 4864 9005 0
-4048 -9123 7451 0
-1579 -4828 3124 0
-3202 7972 -96 0
9763 2500 -61 0
-8597 637 -6784 0
5315 3671 -2093 0
-9659 -5863 4295 0
1566 -9328 5881 0
1723 1341 -2072 0
4026 3511 2610 0
-1786 8368 9151 0
4842 4048 8544 0
-5267 2659 7431 0
-4370 -3854 -363 0
3186 1327 2266 0
402 -1701 2207 0
2038 1801 -1399 0
-5220 4245 3755 0
8879 631 2056 0
-2446 3814 -373 0
-9943 -6553 -414 0
7102 -9427 -1853 0
1380 -5116 -3478 0
-9365 2790 -9336 0
233 -6710 9192 0
-4481 -2930 435 0
-2446 -7515 4609 0
1105 -9805 -8517 0
-6383 -7585 2590 0
-3873 -3777 -4928 0
910 -2471 -2054 0
-1040 -3933 8427 0
-5520 6780 -8282 0
6584 8697 -6506 0
85 59 -4211 0
126 2404 -6854 0
-8722 -7777 -5206 0
71 3839 7863 0
-1369 2675 -4778 0
-876 -3488 9808 0
-6714 248 -9514 0
3007 -5829 -8904 0
7154 6004 9412 0
3201 -6149 -136 0
6451 2752 7156 0
3141 3868 9284 0
-1254 464 -8147 0
1648 3257 6445 0
9603 2925 -1168 0
-5078 -487 9179 0
146 -9232 -86 0
-1079 2959 -9984 0
6437 -2315 -591 0
-5289 -5067 -833 0
-6059 -4862 -3584 0
-5062 -6128 -2325 0
1384 -3878 6159 0
7067 2081 -9020 0
5789 6105 -2839 0
2155 6026 6249 0
1898 -4547 1559 0
9198 8411 3561 0
2613 -4567 4617 0
-7720 6383 2256 0
-5782 -8981 -8102 0
5042 -3854 5617 0
-3354 3571 5061 0
1627 4989 1013 0
8200 8154 -4516 0
-8506 -6459 -5617 0
4891 5456 -7197 0
7886 6347 6415 0
8651 2799 -7711 0
-2400 -6672 6590 0
798 3294 -9065 0
7446 -7079 8230 0
-8111 9817 -5579 0
-5738 2580 -7838 0
803 1280 8654 0
3483 1583 2349 0
2153 6370 -9604 0
-1348 -472 3669 0
-4631 3462 -9515 0
-6581 5334 30 0
412 -5247 -8739 0
-2708 -6450 -9737 0
276 2165 -6301 0
7000 8930 9416 0
-7080 8042 -9993 0
1733 -7211 838 0
9825 -4521 -8309 0
3911 5543 6337 0
-1113 3553 7044 0
6169 -5860 -6380 0
-4296 -1878 1023 0
-6527 7988 770 0
6488 -3964 6923 0
-3245 4648 5858 0
2710 -1678 -3462 0
-9091 3433 -6238 0
-2666 8588 -7332 0
8925 3637 5126 0
-4637 -4491 4521 0
-6748 2674 4118 0
-7508 4461 9319 0
4361 -840 9904 0
-4279 4900 7371 0
1558 -2303 2478 0
9797 3158 -4269 0
-6260 1405 5150 0
-2579 -7746 -4317 0
-6695 -87 -859 0
-3861 -8125 4143 0
-1026 7085 -5641 0
-8113 5145 964 0
-3480 297 2595 0
466 -9181 -3930 0
4296 9288 -4988 0
-7160 7059 9190 0
4596 -4876 -9979 0
-70 4849 4529 0
3520 3818 7049 0
7603 -4001 -6203 0
6838 -2654 -2697 0
-3391 -7330 7056 0
-9662 -4843 6346 0
2198 -784 -5418 0
-6417 -9825 -4977 0
6318 -8198 7191 0
1867 -410 96 0
9092 -3844 -1266 0
-9595 -2063 -6238 0
2905 978 -2099 0
-9473 7465 -4570 0
-2612 -5681 -4013 0
-5896 -8440 341 0
2926 1078 8447 0
-4197 -8922 9819 0
9891 4240 8185 0
7486 -9212 -2482 0
-5383 -4866 4754 0
4077 -3991 -675 0
4985 4627 8856 0
93 -5319 -5143 0
-6827 2335 3431 0
9515 4233 -3754 0
4682 8282 -5494 0
1489 3235 -7008 0
-9452 7874 -9464 0
5218 -7128 9969 0
-6590 -9050 -4177 0
5791 -9047 3372 0
-7743 603 -4074 0
-7743 -4500 -4743 0
7197 6755 9025 0
-3942 -6858 2167 0
-6247 -9191 6343 0
812 -465 7125 0
-720 580 -6630 0
6926 -7498 249 0
5865 -2440 -4278 0
-2814 -2808 7566 0
-1627 1402 -875 0
3456 -8791 2787 0
4838 -3595 -1102 0
-5854 7569 6777 0
-4890 3975 -8434 0
-2228 -7325 -8310 0
-993 -6703 -9108 0
4712 1320 3253 0
-1219 5088 2861 0
9504 9055 9028 0
-6665 -5648 -9849 0
-6580 -3804 -3615 0
-3789 7929 9733 0
-2363 -898 315 0
366 5073 -3513 0
-6283 212 -9263 0
-407 -3063 4363 0
-1029 3540 -8471 0
3850 -5475 -3152 0
2406 1368 -2474 0
-7235 5858 -8008 0
1398 -9116 -4791 0
8517 -8495 -9212 0
6434 5911 8021 0
8654 -3113 7494 0
1837 -2179 7969 0
-9859 4759 6827 0
-1932 6521 7121 0
-9074 3252 -7424 0
-6908 7956 1847 0
9390 -9467 -6513 0
-4709 -2189 1482 0
7129 -8355 9970 0
4794 -1856 -3614 0
3724 5678 6416 0
-5050 6718 -7493 0
-767 8823 5578 0
-9961 7924 7833 0
-2181 4963 -1124 0
198 5531 -7002 0
7550 -8400 -7761 0
-6361 -6529 9317 0
2607 1859 7194 0
-1517 -3126 8506 0
1358 -2369 -4348 0
-5494 -8723 5946 0
3509 2566 5414 0
-5134 4292 3693 0
1375 -4276 7300 0
-3549 4453 5844 0
3423 7383 -2469 0
9912 3110 -2088 0
8382 7382 1426 0
5913 -1917 -585 0
-7719 -4000 2197 0
-1127 -2303 -2601 0
2609 7395 3991 0
9004 5230 3059 0
-9637 -8068 -482 0
9875 5144 -8119 0
-7449 -2552 2618 0
-5890 2174 1389 0
-6350 6701 7755 0
2738 2417 2882 0
-3282 9279 8329 0
3596 -8160 621 0
8280 8500 7198 0
-3115 -2412 -7402 0
-5479 7708 7436 0
9549 1558 -574 0
9947 -612 6208 0
-8831 1145 3296 0
2819 8422 6202 0
1431 -3461 9490 0
5317 3315 -9294 0
-9173 -3140 3509 0
9665 3768 3242 0
-5415 4708 -4410 0
5402 -9233 -6391 0
-5731 4607 2719 0
296 -7347 -535 0
4587 -6590 7987 0
-686 -9535 5712 0
-4257 -1539 -5332 0
8735 -7803 5422 0
-6417 -3939 -9320 0
-3787 1257 2186 0
2809 -9993 -4781 0
-5383 -1439 -9452 0
581 8718 8975 0
-920 -3793 -535 0
-3210 -739 -4254 0
-9188 -1001 3530 0
-590 -221 3142 0
-46 -3536 -7702 0
-630 -6642 2806 0
4623 -5835 9766 0
-1480 8758 -6008 0
-5713 441 1833 0
9742 -2519 -3583 0
1691 -1913 -1655 0
2311 6737 -3383 0
3749 -1218 -2039 0
3936 -4131 -1666 0
-5545 -8740 -9839 0
8976 6901 24 0
8391 5712 5488 0
-7292 7267 7221 0
1086 -5611 2224 0
2837 -4960 -997 0
9390 6242 1610 0
7309 -3165 228 0
2698 -6759 -2312 0
-9469 -1294 9915 0
-9178 -8104 -7912 0
383 1167 -3608 0
-7801 4512 5781 0
-8162 -1970 6813 0
6843 682 -1173 0
6901 -7089 -7598 0
-3844 -3244 2616 0
-7706 733 2310 0
3218 -6022 7665 0
5265 -8828 -1509 0
-613 8180 9007 0
5852 6304 -6416 0
-6398 -8591 -8132 0
9562 3286 3688 0
-1648 7777 2293 0
5728 -8832 2077 0
1549 -9172 9888 0
5584 -7060 -1308 0
-922 -3383 665 0
7097 -7403 6928 0
-9968 -5642 9442 0
81 3769 5047 0
2923 -164 1970 0
6460 9012 -6334 0
-6084 -9944 -6594 0
-4188 -2688 -4791 0
-3474 -8543 -6528 0
-5088 5503 4316 0
-6762 -6834 1848 0
1237 -1299 9289 0
-9240 -8861 -6735 0
-752 -7658 -1505 0
2355 3504 5926 0
-4607 4551 -6964 0
-3058 -2273 -6804 0
-267 -9259 7933 0
-266 5714 -4794 0
-1699 3137 -677 0
538 7053 -3294 0
-7125 -5157 -1703 0
-4985 -3032 6252 0
6999 8573 -1187 0
2984 6380 -4369 0
834 -4576 8495 0
8070 8193 3354 0
4694 243 -45 0
5177 -672 -646 0
4119 -8372 3177 0
1146 -3924 -3300 0
5758 9542 1838 0
-2314 6863 -3993 0
-6388 1048 -8215 0
822 -7058 3571 0
8877 715 6602 0
6118 468 2350 0
7720 1244 8450 0
7132 5576 7117 0
2133 8854 1536 0
-3931 -4778 -8916 0
-24 6810 9963 0
-7174 4152 7737 0
-3131 -8978 1019 0
9142 -8494 -6100 0
-1309 -8278 -6738 0
9104 1860 2717 0
5670 8213 -702 0
8219 -7893 -1103 0
22 -2118 2893 0
8909 3576 -5714 0
-6742 -7547 -2477 0
532 2372 -594 0
2942 5124 86 0
3691 748 6969 0
-3179 -3491 2087 0
-5359 -182 8662 0
-1873 9233 1579 0
-9779 5954 1280 0
-8981 -5966 8902 0
2212 1735 -9117 0
9847 6592 4704 0
7184 9052 -2703 0
-2890 -6056 -8862 0
8588 -2360 -4450 0
9074 -934 -8558 0
-5019 -1209 -9380 0
2840 -1491 8877 0
-8586 2640 -6209 0
7298 6612 -7470 0
7854 -8995 2248 0
6126 1283 -9160 0
1289 3046 -8517 0
4495 4667 2357 0
3960 -7495 -877 0
-6271 5393 4737 0
-7423 2240 -4171 0
-1770 -2178 -8289 0
-4826 2381 5642 0
-9227 7016 2418 0
7350 -4463 5589 0
7858 9691 733 0
2869 -2742 5218 0
-2129 -8408 5084 0
2038 -2400 5863 0
-5770 -8390 -1749 0
-395 -7197 -1411 0
-1217 -9409 8224 0
7359 600 -5605 0
4179 -9204 -4236 0
6251 6665 8206 0
-9617 8548 -655 0
-5458 -9193 -6347 0
-5966 -9395 1588 0
7314 7132 9685 0
8100 -6022 -6435 0
-4437 7560 7368 0
-1082 -8655 -9141 0
-5946 4967 -6672 0
-1201 -1631 -7714 0
-2192 7609 -2514 0
-7316 -728 9454 0
239 6786 -6563 0
-378 6421 6005 0
9950 -6821 -3911 0
8880 -2906 -8138 0
-2233 -5664 143 0
-5770 -5715 -3203 0
416 -4415 8878 0
-5882 -7353 2891 0
-9769 -8968 -8928 0
-5829 4760 -4495 0
-6947 -8313 -7151 0
1543 -7097 9833 0
-7408 -9211 9871 0
7609 -3960 -7599 0
-9307 -5211 -6088 0
3068 9078 -9789 0
3365 1527 -8227 0
6225 -4670 -6721 0
6621 5888 -5515 0
-5002 -905 4232 0
-9270 -1396 -3399 0
8962 -2559 62 0
-3001 -8007 4648 0
-8202 -4726 -2850 0
832 -596 1313 0
2777 -8620 -8699 0
-5598 -7377 -5659 0
3371 -4137 6579 0
5754 6771 -2796 0
-3591 -427 -7553 0
-7170 -5938 -9240 0
-1495 8058 -4377 0
8842 -3560 -616 0
-7571 -1833 -8161 0
-3908 -9258 4381 0
4757 -6019 4968 0
-856 1786 -680 0
2854 -8692 1306 0
1997 -4922 9939 0
-3050 -5772 -9373 0
-6564 -9078 679 0
8187 -3888 5120 0
-9156 -7326 -1788 0
1677 3736 1354 0
8886 5535 -9352 0
8880 -668 6631 0
-8570 -9735 7962 0
-223 -1082 5794 0
1895 3011 -9875 0
2192 8528 -4392 0
3826 -7776 -5304 0
5387 -5562 -5582 0
9918 6509 5053 0
-6756 -7459 -4206 0
-1016 5882 5683 0
8870 3972 9155 0
2211 -4127 -157 0
5656 6634 7870 0
5257 -6910 1955 0
-9612 9193 -4753 0
-9920 -6013 -1898 0
-1615 4136 -9886 0
-4421 -3899 -3303 0
-9379 9762 -1479 0
7689 -7995 -6206 0
-2872 -7171 -8181 0
2658 5853 -8501 0
-3400 5668 -5063 0
3481 -9904 1818 0
-1267 -1137 2102 0
-9111 1053 -3872 0
9337 -4922 -3532 0
-1331 6990 4142 0
-8635 -4144 2752 0
-2969 4426 8431 0
9359 -7230 2082 0
9312 -6225 -8327 0
-6859 4820 -5846 0
7056 5428 9613 0
-7426 -3776 -7300 0
9798 1143 538 0
5327 636 -3820 0
-4534 7058 8332 0
-2013 4672 713 0
-736 7853 -4353 0
-4460 -7361 4539 0
-1659 -4220 9442 0
3602 1526 3672 0
-6422 620 9215 0
-7889 5120 -3349 0
-512 -9741 -7497 0
5725 -9535 2952 0
6209 7246 -1106 0
6853 -1087 -9739 0
1348 -8614 557 0
-1336 3610 9594 0
8113 3116 -3138 0
1202 -7970 1221 0
5207 5198 -5918 0
-6437 2467 -5382 0
-5917 -5581 9675 0
2003 2856 4365 0
-9467 7739 -2596 0
-2233 8416 4403 0
-1860 -7188 -3770 0
3217 5808 -9833 0
-1785 6342 -164 0
2574 -7884 3083 0
7202 -2927 -4915 0
-6112 7561 9498 0
9486 -9773 -8016 0
5934 -3257 -1127 0
-5332 5456 -4711 0
8060 6977 -7331 0
-4668 -2235 -865 0
5807 41 -4456 0
6582 6006 6963 0
-1958 3098 -376 0
-3278 -3163 -8875 0
8417 6930 -7586 0
-5019 -4698 -8469 0
-1955 8327 -7657 0
7962 8817 -337 0
4785 4728 3606 0
-6375 5045 -7492 0
-1688 -2498 7013 0
9022 7862 -6556 0
-4402 -1655 2027 0
9830 -6101 -5053 0
5680 5639 4227 0
5644 -4449 -5938 0
8792 2858 2629 0
-8546 1681 1140 0
-415 -4316 -2866 0
6670 294 -6916 0
-4440 9404 923 0
-4160 -1061 -6856 0
-3066 -757 4405 0
1078 -2419 -6197 0
-7126 2404 -8861 0
5468 8194 5961 0
5173 -3842 6002 0
-3900 7960 4624 0
-4968 7696 287 0
6804 -5263 3009 0
-4457 5911 1983 0
3586 7682 -8544 0
5033 8474 2285 0
8243 4706 8507 0
2444 8342 8208 0
-5806 -4020 3981 0
-6584 -6946 5850 0
4082 1021 -8747 0
-8901 4790 -5539 0
-5355 -8567 -4895 0
4306 -6385 -8287 0
-2973 422 7494 0
7883 -3939 -1708 0
-1478 -2376 9942 0
-9777 -6695 180 0
-4669 5901 3001 0
-5554 -8539 6944 0
-8144 6314 -9760 0
-4294 957 3326 0
1078 8139 -180 0
-5711 -8082 1493 0
7918 8136 -6159 0
662 4728 5439 0
-5580 9381 -8876 0
1512 4467 4647 0
8596 2912 -6232 0
4504 -6602 8123 0
-5753 3112 2739 0
2047 167 -2503 0
-9836 -7451 6662 0
-955 2313 1480 0
6387 -9202 5737 0
-36 -7166 -1538 0
1543 9550 1183 0
1965 2047 202 0
9082 3822 5126 0
4550 9990 4436 0
-6788 8071 8945 0
-9172 -6068 -8226 0
-7450 9277 -9127 0
8622 6895 -9570 0
860 -9619 -5830 0
1371 -8450 -1170 0
-4766 -8854 7592 0
-4864 -6392 -2512 0
3616 6582 -1688 0
-755 9349 2587 0
-2917 7234 -1461 0
6680 -1118 -4219 0
365 -2250 -3821 0
-7198 6293 4043 0
-8870 -9176 -7647 0
1048 422 2326 0
1967 4873 -3070 0
7582 -1526 -4591 0
1847 -103 -2034 0
-6075 -9368 7895 0
-9060 3404 -7867 0
-5082 2387 -3557 0
3777 7356 2527 0
-951 8194 3086 0
-443 8479 5991 0
-8879 -4034 9695 0
-624 -1515 8974 0
8140 5315 -716 0
5257 -3504 6263 0
1052 -5570 9916 0
-8016 257 -282 0
5379 -6251 7443 0
-8221 -7767 -5504 0
-9118 -5535 9381 0
-6324 6089 4943 0
2230 5237 7486 0
-7844 6292 -4461 0
1141 -5488 1429 0
-2130 2830 3802 0
1818 -4601 3666 0
5698 1601 2576 0
-7776 3816 -2821 0
5836 2922 -9575 0
2200 8526 1966 0
178 587 -1370 0
1918 -7631 6071 0
-3661 -2829 -2708 0
624 5772 -6612 0
-2004 9892 5456 0
-9683 6949 -9214 0
-482 1141 9653 0
-5376 -1857 3980 0
-5137 -9579 5399 0
1101 -2651 7603 0
-4076 -8485 -53 0
-3104 3051 -2503 0
-353 8224 -5047 0
2276 7103 1121 0
5009 2372 5291 0
-3861 -3439 5130 0
-4855 -5978 -6031 0
-3960 2799 7355 0
4516 4234 -8767 0
8798 8915 -8485 0
-8150 3722 3652 0
6079 751 -259 0
-9597 1839 504 0
-5684 5683 -4496 0
-6456 -5198 -2007 0
-1055 -2645 514 0
-100 -5998 8135 0
-5383 -2662 -885 0
4915 3155 -1716 0
7318 4957 -8702 0
-3969 -5503 -3328 0
6338 4786 -7408 0
-8886 7920 -4255 0
-7770 -7252 -1143 0
6418 -643 6715 0
4097 -113 -4965 0
3741 1215 510 0
-3382 4886 -1618 0
-4415 5237 -9377 0
4733 7673 -8041 0
-2121 3940 -6757 0
28 -8736 8745 0
2312 6774 5612 0
9787 -5976 -5197 0
-8830 -7547 -9933 0
-7431 5069 7971 0
172 -9512 -4382 0
641 -1485 3898 0
-2924 3010 -9226 0
3235 2073 -8715 0
7166 5389 8426 0
5762 8052 -2284 0
8871 -2497 -8797 0
-9364 -1883 7361 0
9733 5277 5343 0
2158 -7318 -2674 0
3717 -9654 -2834 0
8606 9591 4166 0
7702 1477 -9697 0
2025 8328 1899 0
-4885 9095 3651 0
-976 4216 6180 0
1285 1526 2678 0
2489 5916 -6242 0
2485 592 -5498 0
-4105 2421 4315 0
-1753 5443 5162 0
-5750 -9607 -4767 0
6319 8513 6801 0
-2511 -9597 -7945 0
7609 -7955 269 0
-1430 8261 8777 0
-402 7961 5283 0
353 7331 -2650 0
7054 7821 3493 0
4410 74 -9210 0
-1654 -1732 -155 0
8601 4590 -7315 0
-5837 -7659 9056 0
-4592 1567 68 0
-9241 2542 4706 0
5515 1985 1927 0
6282 1405 -5436 0
7918 6152 5307 0
1778 526 -4280 0
-2329 -2782 -2513 0
3990 -2964 -5531 0
-7483 1489 -7998 0
-9156 -3074 3813 0
3204 -2114 1231 0
8185 9345 4598 0
-8296 -2365 -2975 0
2573 -4639 6395 0
-5087 2457 9617 0
-272 4945 -4932 0
7155 -4810 -5053 0
5876 -7047 -165 0
-5898 4011 7575 0
6809 1724 -7598 0
-9871 -4605 -5688 0
9793 9626 -8554 0
2879 -9673 -857 0
-138 -4442 -4056 0
-1935 2239 8969 0
7349 -8486 -1633 0
517 1525 -5354 0
-2198 -6421 -1373 0
-455 1253 -9567 0
-9510 -4841 3893 0
1547 -5105 -5214 0
-8034 -8702 -5207 0
6360 -5316 -2714 0
-6979 -2249 3616 0
246 6537 -598 0
-436 -6958 7475 0
-2458 -1765 289 0
-2268 -9043 -7020 0
8953 -5951 -5704 0
-3483 -5092 -3209 0
-6828 4722 -5721 0
2315 -6337 -6095 0
4800 -3984 -4810 0
7067 1011 -1499 0
6213 7679 -4096 0
5560 -4233 -728 0
-7384 4468 -9864 0
6932 9992 3940 0
-2826 -1197 -7446 0
9781 -3663 -2133 0
-2014 9678 698 0
-830 8366 -7948 0
3580 -1819 4995 0
-2014 5264 -499 0
-6253 3986 141 0
6004 -6648 6727 0
9596 6143 6188 0
-1788 -7554 5547 0
458 -4283 -9362 0
4590 -2886 7618 0
-9590 6850 -9531 0
9237 5497 4003 0
645 5170 128 0
-5586 5935 1577 0
4240 2571 3068 0
2476 -9966 8933 0
-9258 9591 2164 0
6494 2048 7386 0
6951 1132 -9777 0
-9476 6140 -4144 0
6976 -5049 -8765 0
9166 4866 -5953 0
7596 2072 -3641 0
7629 864 -224 0
-1984 455 3524 0
-3380 -4181 -8157 0
72 -4116 8648 0
-8201 2996 9420 0
5580 -8313 -9011 0
-7778 4784 -7893 0
3100 -2213 -4190 0
9031 -2991 8409 0
5531 6483 -1469 0
8639 3202 2095 0
-9819 2701 -2949 0
4440 2478 -6056 0
4254 -6449 3738 0
-8877 -8299 -8840 0
-7950 4326 6418 0
9289 -5723 9398 0
-9321 -8783 4165 0
9620 -8343 -4890 0
7497 817 9828 0
9237 4236 -1006 0
1132 -730 6485 0
-364 604 -9331 0
-303 -3070 5742 0
-42 2284 7312 0
-7720 -2959 9874 0
-4437 7686 -6491 0
-5446 -3564 -5084 0
4835 -6751 3510 0
557 492 -5596 0
8955 4817 -6231 0
3752 6142 -9805 0
4499 8338 -4109 0
6997 610 -1526 0
-2489 -8490 1587 0
-2782 5099 6698 0
-4211 -5386 8169 0
-4071 9106 -889 0
6755 7059 4934 0
5893 8125 -4189 0
5779 2086 -9688 0
-6073 -7158 -5997 0
5880 -5450 -4671 0
-3838 7532 -2221 0
4781 -2324 4957 0
-6353 -9057 9305 0
9224 5047 8885 0
-2273 -131 3377 0
-2056 -6015 6046 0
-7929 -5909 -5688 0
4943 9843 6106 0
-6089 -9237 -3250 0
-94 1075 5777 0
5954 1874 8107 0
2766 -1915 -5757 0
3807 -5808 -9174 0
-2173 7581 4010 0
-974 6985 -4839 0
-2444 -5286 -5883 0
5365 4933 4547 0
8141 -8391 -7063 0
-6632 6478 -9614 0
-2808 -1472 4464 0
6298 -6141 9900 0
5256 2855 -9690 0
-9734 -1061 9958 0
4242 7816 1226 0
34 -776 5289 0
-7172 1263 -8278 0
9933 9861 3637 0
2459 5362 -4193 0
-3037 -4264 -7911 0
58 -4458 -4131 0
-8881 6160 -9910 0
-3005 3130 -3137 0
6195 4885 -4996 0
-5108 897 -5254 0
-4851 2666 -4574 0
-4731 3102 732 0
6355 -3811 -7133 0
251 2541 9393 0
398 1585 -4222 0
9758 -1340 9783 0
-9358 5791 -6302 0
2712 -1412 -6248 0
-1827 -8650 -2624 0
2954 6629 -5289 0
-8677 3298 5084 0
-7867 -6395 138 0
-2126 -3656 9473 0
-6109 -1497 2694 0
7975 -7478 4832 0
-7823 -5384 2792 0
5050 -4813 -4327 0
-2763 -1427 3288 0
-1369 -6216 429 0
9008 -951 2499 0
8361 -4616 -1688 0
4243 5565 -9992 0
1674 -3933 3134 0
-2390 -4981 4021 0
-1287 -8042 -8579 0
-6826 -6838 4330 0
-4180 2798 5076 0
3879 3697 -6123 0
3372 -6484 -373 0
-730 8020 -315 0
7074 -1929 -8409 0
-7777 2060 9128 0
3715 9155 2284 0
-6715 -4060 -5407 0
-9266 -3694 -3771 0
2630 -277 1528 0
7420 -1392 809 0
-675 6312 6462 0
-6468 2610 -1988 0
-7816 9788 4234 0
5382 -9276 949 0
3640 -56 6393 0
-6788 7771 2896 0
-399 2366 -2015 0
-2406 4339 6337 0
-7262 7681 -2604 0
1937 3859 2706 0
-1165 -1856 -6519 0
-7338 -8460 2944 0
-6310 7938 3747 0
43 -7408 2098 0
-5074 -1192 -4760 0
2235 5822 -8943 0
8750 6223 684 0
970 8279 -4272 0
-1814 -2869 -3444 0
-9038 -4422 354 0
4624 -2920 -3970 0
-6502 6387 7859 0
-8418 5270 -7008 0
-1764 4775 -2924 0
-607 9421 -2448 0
9014 -3054 7942 0
-8863 -9875 -9984 0
-7315 -3848 -5866 0
-3375 3079 9236 0
8235 5024 2830 0
1571 7346 -3899 0
2112 -7501 -1538 0
-4874 7566 -5082 0
-3399 -8125 -2245 0
922 -9108 1226 0
8125 5222 6358 0
9759 8730 6383 0
906 -147 2980 0
-9822 -6007 -2831 0
-6004 6775 6377 0
8967 -9336 -6416 0
-9709 5823 4437 0
-8194 3664 2107 0
3240 -5091 -8528 0
5282 -3218 9 0
1243 -2866 -2863 0
561 645 -1968 0
2624 2809 -8836 0
7986 -8541 -4329 0
2626 868 -7132 0
5002 3383 2931 0
-931 -8919 405 0
4025 -1855 8050 0
-2536 922 -9831 0
-4432 -8789 7444 0
-8495 325 4717 0
-9008 9584 7260 0
1484 -6062 509 0
7662 -4600 -9562 0
-5084 658 -9301 0
-8755 -3097 5726 0
-6312 -3628 2855 0
4333 2889 -7425 0
-160 -7854 6686 0
-4481 4340 -2538 0
6784 5006 -545 0
-9243 -3634 -7250 0
-9299 -8699 7441 0
6040 -736 865 0
3170 2874 -6691 0
-3509 4735 -4360 0
-4138 -3995 -6665 0
5836 -2922 3108 0
87 -9668 -8176 0
7350 3326 2879 0
4505 3340 1371 0
-9087 -8586 -6431 0
-6215 3933 3618 0
3042 -6970 6117 0
-2682 3588 1414 0
-243 2610 -8843 0
2468 -6904 5128 0
487 -4156 -7421 0
7891 -6632 3549 0
-395 7970 604 0
3180 -3417 6048 0
-2886 4447 -288 0
-1890 4062 -2906 0
774 7539 3377 0
-7228 4357 1797 0
-8679 -1983 2330 0
4725 2799 -6681 0
-1111 8232 3278 0
-7553 7464 8004 0
7878 -5956 -8795 0
8756 -157 -9475 0
-203 -9028 -9439 0
5562 -4995 1202 0
-6934 -1710 -7357 0
3877 -30 176 0
4141 8479 -4054 0
5038 5740 6596 0
-4318 2316 -3701 0
8386 380 6981 0
6537 -6993 -6763 0
-2672 -7296 -2904 0
3325 275 7889 0
-8294 914 9305 0
-6764 7530 7476 0
1215 -6256 8129 0
-4214 -1837 -1883 0
-5481 9871 5310 0
-606 -8634 5729 0
5357 5267 6739 0
24 -5001 4353 0
5687 -4781 866 0
-3680 1795 -3000 0
6285 -4628 7144 0
-5010 6192 1910 0
9754 9467 761 0
7949 9869 -1489 0
-8200 9408 5818 0
-7071 -453 628 0
4399 7683 -289 0
3011 7922 8128 0
7498 -2745 2841 0
7118 -1448 2493 0
-2930 -7162 -9514 0
1654 -1499 6628 0
-9323 4938 9282 0
-3167 9664 6700 0
3657 3449 -3736 0
1918 -6075 4101 0
6016 3984 3637 0
9800 -9829 -4757 0
5728 1237 -2980 0
-7927 -4873 -4474 0
9854 -7102 5280 0
-4051 -5706 9267 0
5571 7609 -5964 0
-9679 8160 -2923 0
9233 3570 4776 0
-4932 2767 -4563 0
2976 -2159 -9012 0
-1471 -318 -3602 0
3847 6030 7203 0
-4312 -9860 -2290 0
-7507 2359 -3237 0
4884 7250 8115 0
-1117 -3191 1237 0
-8670 82 -9034 0
5189 -86 4904 0
9358 2604 2823 0
-3115 -1353 -6496 0
-1544 -6931 -8380 0
9518 -2613 -7939 0
9645 8416 492 0
-2884 7209 7940 0
-6151 -8796 -197 0
4175 -4181 6788 0
-187 -8948 -349 0
-2063 -9324 8487 0
2026 -7092 -1121 0
190 8909 -7421 0
1226 120 9279 0
4777 -3352 -2016 0
9399 4933 2543 0
-4322 7900 -6811 0
-7195 -897 -5588 0
-6050 7234 -2403 0
7763 7109 8800 0
-7378 4399 -2895 0
-5493 6114 4501 0
1933 -9624 -5394 0
3590 1816 -4197 0
8905 7924 1891 0
-922 5106 4219 0
3131 -4125 -1246 0
893 1852 383 0
-4325 -1821 -834 0
-7895 6453 7674 0
4612 6256 -8565 0
-4638 1677 -5371 0
-2796 706 1851 0
8632 -1196 -506 0
2216 3818 -48 0
-2866 6823 5928 0
3899 -4652 9477 0
7899 6455 4238 0
9364 -9996 -9199 0
-8855 -8085 4665 0
8075 -9111 -1406 0
814 -1956 65 0
5323 -4957 -116 0
-7366 673 997 0
8709 5690 -2370 0
9211 -8492 -7956 0
4125 1445 7419 0
6732 2993 -3906 0
-7282 -3480 -8174 0
6363 8082 3179 0
3554 5052 8973 0
121 1332 5208 0
2867 5016 -4798 0
-2461 -2541 1017 0
-77 3135 -9378 0
4642 5623 -4615 0
-954 -7535 -8677 0
-5634 9111 6685 0
-7012 -7869 -6627 0
6409 8196 6157 0
-3773 -7831 9332 0
2189 -602 -8013 0
-2900 -7911 1886 0
-3457 9114 -9952 0
-9425 228 3360 0
-2682 6304 5745 0
2916 4606 -1774 0
-8462 -8524 -9122 0
-8831 1485 5273 0
-8130 6211 -7302 0
6092 108 -5308 0
1588 -8358 -1575 0
-8441 6548 -2306 0
-5800 4352 -9396 0
-1112 -2258 -5080 0
-9256 8606 5783 0
-8820 3244 -7525 0
-7118 6194 -51 0
2008 9691 4426 0
-6328 3414 -6089 0
864 -19 1231 0
1200 5039 9786 0
5183 -3687 -732 0
6464 4273 -7615 0
7763 9601 7504 0
1951 -4233 -6752 0
-9775 8320 8648 0
4108 1350 9663 0
1689 4320 9255 0
320 -7576 8123 0
5001 1461 3535 0
-9501 -6070 -805 0
6381 -4890 5196 0
-3018 -6337 9051 0
5868 -957 -4872 0
7200 3871 1961 0
-9199 -8502 1242 0
-1828 -6188 -2227 0
-5870 724 4646 0
-866 5489 -8576 0
2411 -2540 8675 0
3779 3425 -2677 0
7116 -1270 4404 0
-7798 -4176 -2929 0
3796 5436 -3670 0
1278 -9892 6361 0
8057 -5171 -3310 0
1267 -3623 -6756 0
3628 5789 9277 0
-3908 902 9568 0
-9290 9908 4204 0
-2234 1639 -4069 0
-6268 5192 -5220 0
-2483 2581 9047 0
-6184 9116 9131 0
6758 -320 -1203 0
-3749 -3342 2364 0
7396 -8301 -3031 0
2966 7306 4259 0
-6813 9983 -7052 0
2823 560 -9592 0
-7937 3285 1667 0
-2206 8271 469 0
2536 -5428 -7339 0
1449 -295 -1876 0
8812 2596 5878 0
-7641 8766 1264 0
-738 -1540 -2446 0
-876 -6945 -1183 0
-7409 9719 -1162 0
-7594 3758 5100 0
-7 -1962 -4764 0
8630 -6179 4856 0
-7669 -2324 9950 0
2099 -6043 -8912 0
-6989 -3013 -271 0
-538 5763 652 0
-9376 -4430 -7569 0
2289 8870 5719 0
-7888 7553 -9129 0
-3823 -6104 -1473 0
3873 -4834 -1819 0
2633 8394 3794 0
-6820 4866 75 0
2402 -4393 2904 0
6219 652 2952 0
8034 2535 9995 0
6331 -8335 3243 0
-508 -9534 4685 0
-4640 -6789 -3284 0
-5393 -7241 -3413 0
-2200 -1708 3760 0
7626 8550 -1671 0
2271 -5548 1414 0
-9929 -7625 8856 0
-3532 -1926 1833 0
-1529 -6188 -9838 0
-5998 -6681 3613 0
-3271 1527 5709 0
2189 8080 5204 0
-3048 8168 -9137 0
-4268 3105 -5101 0
-1017 2189 -5571 0
-3836 9553 9733 0
5391 -6230 -2576 0
-9581 -8738 391 0
-1031 7374 -1089 0
-5152 2647 -180 0
-5638 1833 435 0
-3741 8915 -9257 0
-741 -9659 -1818 0
8800 -2438 3628 0
-5394 -1362 -4469 0
-7566 -2950 -2262 0
-3962 3384 -3552 0
-153 4173 -3407 0
-3142 -7097 -9988 0
-6919 -3129 -3709 0
6490 3232 7371 0
-8636 -1845 4503 0
2927 5181 -8200 0
5967 9189 3523 0
7673 5382 -1228 0
5672 3580 8528 0
5316 -9477 -1299 0
-1957 670 8581 0
9540 -8443 -2380 0
-813 9541 9750 0
8566 1652 -5824 0
-785 -2373 9718 0
-2735 -6747 1179 0
-6136 9721 -4895 0
-2337 4291 -1887 0
-3835 9915 9324 0
-6465 1076 -8931 0
2778 -5383 -4908 0
-1941 8880 -4090 0
7221 6945 5596 0
662 2106 -4040 0
-3069 -9537 2921 0
2800 -436 -3928 0
-1260 -4247 8042 0
9528 5231 -7474 0
-1209 5488 3351 0
-6413 531 -5404 0
3949 9075 5514 0
7859 -3424 -6015 0
7034 -688 -867 0
-3816 5435 -8099 0
3551 -4700 -5429 0
-9193 -5041 3318 0
1980 7475 2 0
2228 -1651 4511 0
-8310 8730 3478 0
-2723 -2465 644 0
9726 8493 -2257 0
-7930 -9246 -3685 0
-3184 -7847 -530 0
-1084 636 5870 0
-9705 -4522 7880 0
271 8494 1353 0
9306 8290 -1564 0
-9835 6083 7960 0
1008 1514 -8121 0
9761 6937 -9853 0
-5831 8183 6809 0
8457 -9934 -1500 0
8184 9645 -7373 0
6870 5182 7800 0
3847 -5125 -7863 0
-8194 1076 -7685 0
8116 -2232 -4170 0
-7268 4510 -1599 0
-5892 9446 8603 0
1419 -460 -4425 0
-4724 6329 -2228 0
-5992 -1766 -9629 0
-6585 -7467 4554 0
3683 37 2487 0
7639 -6468 -2274 0
-6933 -9665 5952 0
9091 -3923 -8605 0
-3282 7622 -6840 0
6511 -5544 4825 0
-1015 -239 -364 0
4289 6675 -2785 0
1494 2695 9910 0
3086 -2093 2469 0
2077 6003 7934 0
-1037 3455 6675 0
281 5051 -4275 0
5700 -9790 6388 0
-3613 -8652 2026 0
4778 3938 -9803 0
4268 6792 -7140 0
1027 8429 -1071 0
-6451 3563 8365 0
-3766 -2736 6923 0
-1614 -5351 -426 0
-5626 1232 -292 0
1024 -4041 7308 0
5145 -3677 -9470 0
-4169 7291 1089 0
-5329 1729 -6446 0
6549 -4410 7749 0
-9300 -7218 -5416 0
-2820 4015 -7986 0
-3140 -3735 8188 0
8043 -5153 -6473 0
-8134 -1976 -1088 0
-3741 -6708 2657 0
-3416 8803 2021 0
2214 -3166 4122 0
-954 4593 7647 0
-4628 6416 -6721 0
-4694 -8016 8796 0
8118 1527 -217 0
8115 570 -4449 0
-3627 -460 -689 0
2676 617 2905 0
-6849 -7028 -6592 0
-5895 -7427 -5516 0
1524 8656 -4949 0
-6254 2073 207 0
-8957 5569 -1082 0
-39 -7822 285 0
-934 1485 -3554 0
5200 -6726 -4400 0
1954 2424 9653 0
-9209 8533 -480 0
7438 7390 -9522 0
-9443 6560 -3536 0
-7919 7277 -1340 0
8498 -5948 3367 0
6083 1483 391 0
-4427 -4260 -3878 0
4839 -733 -7728 0
-821 7276 3450 0
284 -7096 -6235 0
-6104 -9672 -4738 0
3546 1137 -2062 0
-5351 -1630 6250 0
1462 5135 -8202 0
-3209 -7861 -4259 0
7094 7497 -9773 0
-407 -4826 2797 0
-1154 -6910 -5509 0
-9886 -452 4728 0
-5982 -3954 -3630 0
-8532 -6266 -3289 0
8591 -2296 -8851 0
-4055 1685 8791 0
-3048 1560 6440 0
2774 5090 5125 0
-4588 862 -9917 0
-8983 -124 -3578 0
4267 9817 -5096 0
-4266 6844 5141 0
-904 -2568 -8009 0
-848 1151 -4344 0
-7924 -8415 7551 0
8288 -3959 5116 0
-7867 294 1478 0
788 7264 -4098 0
-2633 1476 7346 0
-5982 -1258 9796 0
-5577 -1190 5314 0
3045 -5288 9860 0
9925 2137 -8110 0
5611 3521 4136 0
-9852 -8162 5492 0
-1554 -1393 -5251 0
-1093 -6475 4714 0
3750 8440 251 0
3391 -5155 8297 0
-2301 3930 -944 0
-9177 3364 6818 0
7336 -1954 6628 0
-3759 6978 -1493 0
1659 3954 4465 0
7270 -8710 2894 0
-2946 -505 78 0
-515 3296 -2978 0
-8497 2687 -2534 0
7092 -6447 9833 0
8148 -8776 8013 0
3567 -3444 3664 0
4943 2976 -6165 0
-9265 -9747 -7515 0
9817 8955 -6589 0
-5333 -3257 -2716 0
2504 -1863 9952 0
8530 -7990 -7846 0
3679 5336 7102 0
5 2217 -617 0
-8388 -9493 -2254 0
-8083 -8423 712 0
-1798 9613 -6446 0
-5923 6870 -7522 0
-605 -4051 7328 0
-9010 8176 9333 0
-5413 -5381 -4568 0
4601 -2817 -1309 0
9133 3297 4736 0
5479 5528 -4851 0
-111 -2651 -5900 0
-1804 5995 8910 0
5854 -7173 3179 0
-1749 -7156 -2174 0
4839 7609 -178 0
689 -1875 -1622 0
-2072 -6442 -8625 0
7184 3800 -8701 0
-8926 8018 7381 0
-7522 9387 -3336 0
6507 -9779 -9530 0
6269 4609 6641 0
8711 1445 6637 0
3611 -7068 8470 0
7821 -709 4278 0
-6367 3595 8327 0
1157 2801 -471 0
1088 -8941 -6094 0
2908 -9836 4558 0
-6156 -6893 -1514 0
-8818 8741 9566 0
-2040 6994 3418 0
-285 8132 -8014 0
-1520 -6741 1393 0
-7181 1388 -3338 0
-1975 649 -7502 0
-6970 -8087 -6411 0
-6405 7908 8493 0
-311 5447 -9654 0
-9464 -3062 7937 0
7784 -2242 -1847 0
765 3187 5014 0
1108 -2268 -682 0
-9539 8107 -7206 0
60 -3290 9416 0
8535 2992 8198 0
-2000 1839 349 0
5291 8904 -4509 0
4345 3500 6267 0
-737 -3615 -5112 0
3050 1053 1307 0
-7674 3908 -4832 0
7158 1844 2235 0
4813 1247 -6554 0
-3667 -4804 -8043 0
-8733 -7858 -6396 0
7239 6990 -9632 0
-6201 -8454 -4513 0
-1002 -5338 -7682 0
-9072 -6972 -7678 0
-5160 5847 8120 0
5622 -7607 7529 0
-5628 -5013 -6560 0
4963 -602 -863 0
-2464 -1727 854 0
7334 -2586 8422 0
-2407 4272 1373 0
-570 -9705 -4383 0
473 6291 -1015 0
-1141 402 -1143 0
6637 -4519 571 0
-3497 4785 777 0
-2027 6606 -1484 0
5821 -6642 4907 0
-4527 -7386 -2635 0
1908 -2384 -6382 0
1834 -879 3325 0
284 -993 7390 0
-1544 -4368 756 0
7172 -6479 1713 0
8480 9859 7755 0
7181 7334 3005 0
8769 -3258 9762 0
-4278 6796 -8705 0
-3946 9631 5088 0
-5829 8884 -4758 0
2319 7308 -5865 0
-6670 -8759 -2251 0
-859 -9156 -8762 0
-8544 3521 7451 0
-8765 -2738 -6356 0
5786 8730 8805 0
-2580 6412 1659 0
2626 -6797 -3448 0
8130 3547 -5437 0
5451 5753 -5363 0
-5080 8479 -6278 0
-4104 -1181 -3785 0
-7869 3987 2323 0
-3791 -8541 -1186 0
-2507 -4300 694 0
-3018 -4297 -3357 0
9661 -4797 9818 0
-9941 -6350 -87 0
-6616 7127 -6293 0
-2448 4172 5326 0
-1182 -5556 7143 0
-5485 -6037 -6392 0
2661 -9941 -4508 0
-5865 6664 2359 0
-7770 4283 6380 0
2291 4718 1926 0
-758 -8253 -7210 0
842 3190 -9670 0
-5908 1188 684 0
-3187 -4138 -4834 0
2238 74 1564 0
-1504 352 870 0
-6642 5372 -5753 0
9623 8898 -6037 0
-7662 -9696 2540 0
-9442 -8220 9805 0
-656 -3769 4167 0
-7899 7647 -7425 0
-3178 -4354 -5831 0
-5561 2737 -871 0
-4215 -1719 -6870 0
-1171 -112 7211 0
-5705 4969 6239 0
8271 7267 7543 0
560 1731 -8527 0
-9929 -4192 -7523 0
-2224 3844 237 0
-8054 6519 3762 0
-3148 -174 6353 0
7047 -9306 3141 0
7033 4124 9816 0
662 319 -6125 0
71 18 6531 0
-244 -4089 -6575 0
2371 5762 8208 0
-6032 4915 2710 0
4079 4922 -361 0
-2784 7783 -8285 0
-1288 -8016 -6575 0
9560 9339 -3397 0
-8354 -6839 9929 0
-1253 -7204 -4880 0
-8625 -2362 -4551 0
-2487 8996 3933 0
9258 -5152 -2352 0
9285 4429 -585 0
-1801 5425 -3140 0
4306 4149 5422 0
1843 6508 3857 0
-8610 -9857 -8744 0
6644 9311 9470 0
6817 881 -5498 0
-8585 -854 2751 0
7044 -8174 -7338 0
-6091 -5726 8477 0
-8842 -6695 5424 0
6285 5524 -6778 0
9952 9980 -5034 0
3893 6607 5106 0
2987 7148 7419 0
-794 -9858 -8191 0
4021 -8402 2783 0
-7824 8598 -1793 0
5675 7448 8588 0
-936 9456 -985 0
7265 -8281 -9250 0
9661 5768 -6322 0
-1444 -6473 -4256 0
4529 -9689 1860 0
7311 768 5071 0
-199 9652 -5834 0
-5666 -6229 121 0
9397 4059 2885 0
6640 8989 -6773 0
-4644 2488 4671 0
435 8890 -2160 0
-3968 2946 -6200 0
6575 -5638 -620 0
-3462 -4542 -2309 0
-8035 2731 -7287 0
7235 4463 -2705 0
2276 -7505 861 0
8951 8836 -5881 0
6414 -601 7640 0
-1753 -7468 -4908 0
8353 -8491 -7555 0
3517 -547 7775 0
-1389 7266 -9786 0
-2115 978 6358 0
2762 -1690 -4059 0
-215 -3500 1863 0
5759 -7313 1651 0
6191 -4337 7465 0
1332 5330 -7988 0
5250 9050 6762 0
613 -9389 4315 0
-9313 6429 -2955 0
-7886 -8406 2869 0
-3222 -3886 7943 0
72 8378 767 0
9427 8899 -9665 0
-7935 846 -1914 0
-9760 -1880 -2655 0
-8787 -7500 -4784 0
-7679 1512 9967 0
-483 3698 5811 0
-962 1216 3408 0
4954 -5908 -3068 0
5079 6107 7881 0
6320 1843 2741 0
2934 -4292 -7855 0
-5009 1571 -484 0
5891 -6596 4634 0
-9324 -4454 -6694 0
-7762 6005 -419 0
1434 119 -1068 0
6436 2042 -7775 0
7553 -7793 -795 0
3363 -8555 5203 0
-9890 4117 8516 0
9076 -8020 -4924 0
4563 -3091 -9609 0
-1203 -8610 4818 0
9571 -7633 5369 0
9952 3395 -1315 0
-2846 7895 3171 0
6176 -3556 -5642 0
-1702 4656 7727 0
2025 -6320 -9427 0
1686 -4122 -6747 0
8049 -3277 -4929 0
3868 6064 7519 0
1470 7623 -9375 0
366 -1363 -2632 0
-6018 -6705 86 0
4970 -3598 -8730 0
7556 1711 -2051 0
-1246 -9340 1369 0
2955 -4616 -5647 0
-8178 -9474 2756 0
5310 -2465 591 0
1809 -7 4898 0
-4782 8724 4498 0
-2809 -1965 9554 0
-4556 -8623 64 0
-9699 -4977 8090 0
-9629 -230 -8288 0
950 -8734 -7371 0
-5741 -7652 9033 0
3547 -6005 -5819 0
-1737 1875 -2603 0
-9174 -3617 -1521 0
-3267 4599 8424 0
1062 1264 -7863 0
9294 2062 -1878 0
-5711 5343 -7404 0
700 6691 -334 0
-7219 1776 -9033 0
192 -8729 -7692 0
-4061 -3817 -2513 0
7867 5146 -4548 0
8593 412 -5006 0
-6678 4718 2006 0
-6851 1779 4191 0
8589 -7580 2817 0
-6483 -2347 -9853 0
5397 -9172 2565 0
-5389 -2468 3401 0
5919 5804 2326 0
4704 4062 -3498 0
-7781 526 2566 0
-6466 -7019 7766 0
623 -1169 -8692 0
3776 202 -8965 0
5607 -1085 4480 0
5022 -5089 1514 0
7089 9238 3640 0
6734 -7600 -4818 0
635 -1792 1684 0
8895 9941 2313 0
8117 3538 9104 0
-3668 7878 -8559 0
2275 4393 -5310 0
9709 -9475 7792 0
3572 -2165 8561 0
-5019 5970 -4647 0
-9325 -2873 -8751 0
2850 -7419 -7393 0
4699 -3497 3324 0
1211 8321 2580 0
-3424 -4951 2079 0
403 -8803 -8328 0
-7416 -6891 1527 0
-6010 8732 8692 0
2212 8496 7910 0
8828 -4546 7809 0
-6838 901 7926 0
-7549 7885 -8265 0
4733 -9549 -8986 0
2988 -9818 -1865 0
-2761 -2591 -4775 0
5399 7910 -4932 0
-1774 1800 7782 0
8067 -97 8023 0
9440 6124 5387 0
-1057 -9987 -7918 0
3933 7308 9126 0
-5289 5136 -1772 0
6983 -4664 -4262 0
-8374 -6313 509 0
-9622 1095 -4308 0
-9811 735 6164 0
-7688 2881 8166 0
1904 2680 9796 0
6592 -2385 -2166 0
-525 -7880 -1054 0
2689 -875 -4846 0
-3687 -3352 -652 0
4516 -1713 8025 0
-3652 -4835 2112 0
2427 5031 -8029 0
3242 -9369 -6206 0
9815 -8416 5740 0
520 -9166 -3668 0
3727 2432 -2242 0
-9156 8616 7425 0
-2615 -7551 -9538 0
6115 -3216 5585 0
3467 9252 4239 0
-6017 -2940 -9461 0
-2133 -3283 9238 0
-7112 -3718 -6120 0
-2178 -2850 -6439 0
-4605 1288 22 0
-9235 2446 -2130 0
6855 -3953 4469 0
5437 9896 3528 0
-7169 -6051 4357 0
-4461 7949 5001 0
5051 -2446 -2243 0
-5759 -1949 -2762 0
-5055 -3104 2045 0
-9891 384 5917 0
8903 8989 7338 0
-3597 9133 -9008 0
4989 -2784 -3342 0
-6220 -5459 -8635 0
2975 9432 461 0
560 9670 1710 0
-4557 -8401 1743 0
1664 6006 940 0
-4719 -8155 -7920 0
4141 -7922 -5062 0
-1405 -6599 9979 0
-9606 5282 8021 0
9440 -3957 -47 0
7179 -3247 -2071 0
-1239 -2758 6828 0
3112 6482 7766 0
-5323 -9864 -9960 0
-8564 69 -9925 0
2745 -7241 9638 0
4679 -4720 -6048 0
-4549 8894 -1419 0
1547 5133 6879 0
-9370 -6319 1438 0
-2447 3216 -6464 0
-9078 2099 -4105 0
-2341 3688 -7821 0
7680 -8970 -1959 0
-5215 5686 -9379 0
-1621 -4754 -7902 0
125 -1005 2641 0
-6027 -6757 -4643 0
6687 -2899 -6997 0
1493 -5426 5139 0
6063 6182 7574 0
-7202 -1591 -4034 0
1358 -6099 8057 0
2574 -7717 -4897 0
-8130 2985 -9519 0
-6707 -5180 -9765 0
819 -3989 -7334 0
-4311 -2055 1544 0
-7063 -7796 790 0
-8811 8865 -9971 0
6768 4236 -8155 0
-2238 -3274 7110 0
-1787 -9124 5203 0
3246 -576 4555 0
8516 -6630 9281 0
2238 7550 4747 0
-5813 7932 4145 0
-9703 8664 -1669 0
6682 -2440 -1397 0
2194 7654 -8430 0
4972 5857 -9022 0
-9257 -823 -1636 0
1780 -2617 4475 0
-4323 -7654 -9817 0
6486 652 -6834 0
7455 -932 -9110 0
-3119 939 2244 0
3890 8728 -8421 0
-1587 -1883 -6993 0
-232 -9180 -758 0
-175 -5539 -2887 0
4061 1428 2227 0
3663 -1613 5991 0
2951 -4615 -1043 0
7216 -1002 2721 0
1454 -8652 -4744 0
-5699 9406 5731 0
-2549 6616 7749 0
2052 8812 2812 0
-1121 -591 3912 0
-600 3756 8115 0
8628 3967 7187 0
9539 212 1307 0
5781 5338 2184 0
9663 7591 3542 0
-1176 -4981 4278 0
290 -5445 8797 0
5353 8615 2619 0
-3931 -6227 -9992 0
-8429 3993 -4260 0
-4343 -5957 -9753 0
-8758 -1434 341 0
-3656 -2894 5444 0
424 5523 -3425 0
6588 -5105 -29 0
-4750 -6060 7016 0
2244 5928 137 0
3699 7432 -369 0
2857 -8473 6588 0
991 -698 -9422 0
-3712 -4591 -2891 0
4887 -5556 5258 0
8390 3177 -2193 0
5616 -1422 -4523 0
9217 1710 9488 0
8974 -6443 6331 0
4137 -7599 3004 0
6496 702 -1778 0
9940 -1810 8296 0
9915 -4241 7098 0
-4661 -2205 826 0
-9866 -526 4896 0
-7143 -9515 -7909 0
6140 7033 5809 0
-7993 648 9421 0
-2636 -9528 -8358 0
8966 -5082 3779 0
-951 -3071 1851 0
-7334 -6923 -5496 0
-4942 4996 -2465 0
-1301 -1793 4157 0
4392 -9194 -3081 0
-4402 3637 -7807 0
8398 -5349 3106 0
-6377 9301 6417 0
-8253 1866 1768 0
-1654 8480 514 0
-4229 1689 -3084 0
-4267 722 5750 0
-645 3799 608 0
-6324 660 -3475 0
4026 -3112 -4829 0
-6755 -8455 -1727 0
5288 -7531 -8782 0
-7087 3862 -6197 0
-4795 673 -1060 0
-5432 -3903 5546 0
2074 -4598 -2557 0
1906 -6955 8680 0
336 9968 7329 0
-6242 2347 -4698 0
-7806 -8904 20 0
4557 3593 601 0
8033 3631 5431 0
-267 5942 -8372 0
6919 -8420 5263 0
2543 -1144 -6114 0
-5372 3175 2882 0
-1855 6424 -6651 0
-7528 -8020 8381 0
2178 540 -4802 0
-9158 4625 -2281 0
-1790 4021 1570 0
-1566 7283 5237 0
-602 -7903 7829 0
6631 4571 1146 0
-7227 8623 5048 0
9502 5514 -3738 0
-3621 5081 5825 0
-1670 -6176 -3942 0
1606 -8090 -7340 0
-8206 1320 661 0
-6992 -3350 -3233 0
584 -2459 4058 0
5868 -3738 2828 0
7903 1857 -9800 0
-6598 433 6656 0
9742 5363 9989 0
-7620 7096 3127 0
3937 -7999 4023 0
6132 -3641 1578 0
8861 1294 9582 0
-205 -727 8682 0
6575 -4731 -60 0
6781 3699 8024 0
4770 1158 372 0
-9262 6727 -84 0
4421 1194 9593 0
-1590 8022 648 0
-9509 6228 -3109 0
8625 -616 -2947 0
9484 -1276 616 0
6953 9995 7362 0
-4076 383 -7027 0
-4158 -4862 -5748 0
7130 8205 6057 0
-1012 6130 5394 0
1190 -4468 8554 0
-8837 -7344 -9950 0
7890 -5152 -2264 0
5274 -4906 706 0
307 4798 -1963 0
-3912 -7372 7872 0
-9567 9653 -6158 0
-3135 2181 -4559 0
1560 -4519 -2288 0
-8542 -232 9608 0
9856 -7366 5146 0
380 -8361 4450 0
7883 5369 4080 0
-3010 -6217 8236 0
-1416 -1608 -7811 0
8149 -5792 6323 0
7546 -1729 -3985 0
-7957 9994 6670 0
-956 5344 6107 0
4169 -3680 2 0
7537 -3504 -424 0
3022 -8246 2718 0
-3317 -1495 -4020 0
3677 -11 -9857 0
-920 -2215 5028 0
-7381 1601 9411 0
-8476 -3208 -1599 0
8804 -3834 -8897 0
7548 9770 9361 0
3266 3048 -1902 0
-1121 6300 672 0
-8439 -5020 8424 0
6823 6524 5880 0
-692 -5845 -5089 0
8644 927 -4050 0
5031 -1131 -8464 0
2309 3488 -2351 0
2762 3095 4182 0
2033 -3996 -6134 0
-4749 5998 260 0
-1972 -3706 -8139 0
437 3060 -2863 0
-9600 -133 8811 0
7654 9731 7115 0
-4662 4453 6515 0
-6581 -9125 -7750 0
8345 6916 4468 0
714 275 7300 0
3539 -6626 1251 0
-2482 7700 2286 0
-5150 -5471 -6115 0
-486 9745 -8069 0
2065 -3818 -248 0
5428 6771 4386 0
1174 -8425 -3985 0
6070 2286 -8958 0
1017 8996 7744 0
-376 8636 -8154 0
-3279 7770 8269 0
-9807 7663 5287 0
1128 -1901 2846 0
-6810 -1831 -2304 0
-1072 -3912 5204 0
9212 7379 -7089 0
3500 -7298 -1566 0
-6638 -7877 401 0
-6546 -890 -5624 0
8537 -7842 -7460 0
-4302 -1663 3109 0
-5073 8255 5292 0
137 3582 -9713 0
-218 -8863 8922 0
-6784 4254 -596 0
1553 -5803 104 0
2835 2147 3163 0
6518 1800 5229 0
9796 7199 6192 0
7239 -647 -7324 0
2885 -8392 9243 0
2539 -2144 -8956 0
4647 948 -5980 0
1411 3755 -4378 0
3477 -8246 9516 0
5241 6 3996 0
4205 4489 -8821 0
722 -3042 7201 0
-9910 -8729 3365 0
1725 4053 -5098 0
-4019 6558 9593 0
-9247 -2848 6625 0
-293 7799 9310 0
-5927 -2663 -2715 0
2999 -2156 -1735 0
-6886 8426 7238 0
-6284 -5737 -1870 0
-7262 2097 4269 0
4997 2584 5076 0
2927 5957 -5496 0
-761 5389 490 0
5618 -219 8697 0
4102 1375 -2644 0
7048 -9182 3786 0
-6793 -3654 5951 0
8521 4523 1506 0
-4480 -7612 -2970 0
-6804 -3905 -2517 0
6778 -2503 6470 0
-3376 1452 -8763 0
-3640 7248 3243 0
6056 5826 781 0
-8901 -246 9354 0
-5740 1249 -9197 0
-1199 -2944 4854 0
6336 3943 3512 0
7335 4715 -8008 0
7823 -5918 -7309 0
-5674 -8558 4903 0
2996 3280 9276 0
409 -2261 1668 0
2178 6092 -7878 0
3805 9738 7927 0
-5196 -9158 -658 0
6661 1574 -4134 0
-1786 5475 9978 0
-1380 -3591 -5186 0
3430 1904 405 0
9925 5290 -5986 0
-4896 -678 3440 0
8734 8605 -1165 0
-102 9627 -7318 0
3567 -9039 9302 0
-8258 -6317 -7525 0
-6762 7384 8170 0
-3728 6489 366 0
645 6998 -5550 0
-6312 5505 -4850 0
-6811 3482 6953 0
2781 881 2605 0
-7213 -3634 -3916 0
2279 1229 -1063 0
-6865 8827 5898 0
-2485 4125 7128 0
-8459 1113 -4697 0
3319 4307 8955 0
-5829 2187 8267 0
-5157 -9503 657 0
9924 -4588 8251 0
3147 4500 -9554 0
3229 -9743 -7275 0
1816 634 -842 0
-4689 -5835 -3269 0
4979 3950 -2867 0
506 -5449 9769 0
-4537 -7234 -3085 0
5048 -9331 4188 0
8953 6176 9535 0
-1270 -2993 951 0
-1085 2535 -9308 0
7388 -6970 -9793 0
1580 -2848 -8336 0
2229 -1741 -9327 0
1371 -4987 804 0
7356 6271 2963 0
-1992 -5475 -982 0
-4764 -4985 -4188 0
-1526 -2147 -1263 0
-6320 -8840 -2146 0
-5130 -6261 936 0
1515 -8412 9652 0
-269 -8330 -215 0
5958 4811 49 0
-3590 8101 -6020 0
8759 8548 9383 0
6581 -7023 -5375 0
3226 7990 3539 0
1483 603 -3117 0
6826 -3280 -2142 0
-877 5955 4651 0
4408 -4367 3140 0
-3286 -5389 -1263 0
-3829 -5189 -283 0
-7029 -3429 -2604 0
-4508 -2622 870 0
6537 -7816 -6030 0
-2893 -7536 -8526 0
-1845 2020 -7107 0
9812 -3915 3794 0
-9674 -8299 -1061 0
5216 4557 -2945 0
-7177 2124 8725 0
5329 -2276 5710 0
-3669 3891 -7725 0
4542 8532 -2035 0
-5700 -7867 -2406 0
3256 -8606 818 0
-3378 9121 -6962 0
-8351 8164 -6864 0
-5315 3010 -7697 0
4311 -7908 -6530 0
1273 8576 -1642 0
-1448 753 1463 0
-5627 -3957 1500 0
-4626 1177 -2700 0
-3917 -4551 275 0
-8436 -3880 5543 0
9474 4190 -4740 0
6552 -8460 7719 0
-3232 -8301 -2068 0
1783 -1191 117 0
1513 3983 -953 0
-6634 -6113 3187 0
722 -9439 7999 0
5356 6211 -6767 0
-141 -2667 -2437 0
5657 7164 -6507 0
-8090 6545 -135 0
-8350 122 7917 0
-119 9328 3906 0
-5566 -4595 9454 0
9240 -529 -5644 0
698 -7565 9940 0
8550 -2257 7710 0
1567 -2421 6597 0
9870 -7015 -4174 0
141 1323 4650 0
-7369 2009 -5959 0
-7740 5842 5408 0
1573 -7868 2000 0
-6104 -6789 9572 0
8433 -2062 -6603 0
-2796 7648 -6323 0
8083 -4548 -6755 0
190 6233 -2708 0
2194 -9606 -9917 0
3672 1284 -8482 0
-704 2563 -3156 0
3289 -6463 5901 0
-1176 3964 -5086 0
989 -1195 143 0
6390 710 -2041 0
6240 7576 852 0
-9363 -806 -8817 0
3225 -956 -1906 0
8912 3638 -8901 0
2476 -3256 -8321 0
9577 -8429 -1409 0
-7831 8868 3766 0
-5226 1348 -2545 0
-3310 -4872 -5922 0
-5638 -6142 -5499 0
-6635 8148 8967 0
1243 -890 4839 0
3356 8526 6199 0
-9957 5526 8824 0
-6158 3944 3153 0
1205 6462 -4148 0
-6094 1186 -2571 0
9609 2779 -5948 0
-2245 -7899 -3298 0
-4929 6670 -9104 0
-623 -1827 -9650 0
-6091 4872 9014 0
-4643 -48 5278 0
138 -216 6403 0
7278 -3929 -8519 0
125 8602 2478 0
364 -201 -3440 0
5160 -6571 4274 0
5852 2579 3486 0
4256 5796 -437 0
-1607 1475 -9456 0
9740 -1090 1558 0
8162 7712 -1406 0
-1904 -7264 8288 0
8633 3571 229 0
-9760 7565 -3713 0
7869 -6141 -2006 0
-6600 4651 -6903 0
9131 -6345 -6725 0
264 30 3364 0
-1378 -2398 -977 0
7780 1118 9121 0
6801 -6355 3690 0
-5034 -1615 -1698 0
4130 -4861 2660 0
6651 7088 -3812 0
-8470 -7490 -3449 0
5635 4436 4944 0
-2112 5654 3460 0
5939 -942 6363 0
-6307 3483 -3551 0
7119 -4678 5424 0
3937 -5433 1979 0
-3946 -210 -4737 0
9329 -1649 -6874 0
-1047 -2041 359 0
6046 -5042 4124 0
-7237 -1194 5773 0
8033 939 6260 0
-7955 320 712 0
4661 4960 -4480 0
2834 -6487 8368 0
-9980 6011 -1468 0
-6542 4739 -3056 0
1835 -6163 -6122 0
-1223 -7865 5358 0
-2307 -8582 -1609 0
-2976 398 -4948 0
-9393 -573 1026 0
4322 -4846 -9480 0
5561 6007 -6765 0
5235 -5824 9906 0
6302 9093 -5310 0
6003 3166 -4070 0
-4742 -3625 7106 0
2944 -3770 -1877 0
8041 5722 -949 0
8958 4249 -2782 0
3254 -9266 2863 0
-933 2920 7870 0
9126 4599 9142 0
248 4130 6900 0
-1028 8033 8851 0
8518 5814 -1637 0
-746 -3580 3860 0
-1589 6753 -8425 0
8001 1954 -6328 0
-8033 -7561 -5878 0
4747 -4386 9763 0
-8431 8279 -7694 0
-7296 9963 8659 0
-8985 -2479 -6284 0
6296 -4601 7281 0
-8969 7906 9125 0
-6858 8450 2573 0
-7863 7441 7212 0
7648 8495 -4497 0
1512 6913 -6621 0
9750 -2654 -3640 0
-3868 8893 -133 0
7857 -8937 909 0
-7478 -809 -4400 0
-9801 -1947 -565 0
4897 -8788 -5305 0
4301 -586 3958 0
-1146 -1927 5808 0
9554 -9525 -8552 0
5950 7318 3567 0
-6367 6666 6140 0
7667 -9651 6356 0
294 -9935 -3702 0
8684 384 2189 0
-591 -1693 4065 0
1034 3134 8559 0
5826 -7634 -2404 0
8972 -2016 9711 0
6919 5374 1741 0
7206 -2396 -4503 0
-5587 1437 7472 0
8456 6119 1881 0
-6614 -7279 -6368 0
1805 7251 13 0
-8393 4713 6510 0
8387 3312 -1865 0
1918 7536 -1096 0
3807 8238 -8220 0
-180 -7574 -8674 0
-959 -7819 6684 0
-7441 -2957 4121 0
-8652 8798 -8926 0
-4553 -210 9958 0
-512 5855 -472 0
-9122 7148 -2098 0
-1878 -9802 -4657 0
-380 137 -2247 0
3624 -248 -4181 0
-3464 -7463 1967 0
-7425 -4049 2794 0
-5379 -1953 -5332 0
-2555 -2909 2704 0
2803 3076 7865 0
-9974 561 -9039 0
-4752 -5438 -8600 0
8328 -2789 3225 0
6616 -8390 5440 0
3059 3138 -5343 0
-9242 -7641 8155 0
-8182 3272 -7722 0
8386 -139 2172 0
8167 9928 6204 0
-2298 -916 -4819 0
644 -226 -3892 0
-5375 3338 1764 0
-8078 -9924 -9254 0
4686 6869 4773 0
-9836 306 2904 0
-4681 -1125 -297 0
-8601 9163 7838 0
-844 -8606 5453 0
228 -3159 -4544 0
-5310 137 3809 0
-9924 472 -2643 0
886 7189 1414 0
-7661 -7105 5037 0
-792 -960 -4487 0
-7561 -3761 2004 0
809 6168 535 0
9047 2862 3334 0
-3230 -2737 -9972 0
576 9415 2865 0
6169 6114 4251 0
-6273 5707 -1026 0
9810 -6865 -776 0
1244 -2331 991 0
-5735 -6966 978 0
8034 -6762 -7289 0
6490 9072 1770 0
-1117 6141 7405 0
-2309 2524 -5663 0
-4592 -313 -6288 0
-323 9095 1688 0
-5484 2938 6661 0
-9352 -6949 -3185 0
-998 2188 3835 0
-7150 -9431 -6260 0
-4426 7201 1314 0
-3970 -2143 576 0
7973 3802 -3232 0
7368 -8595 -618 0
6447 1643 4263 0
2008 -2844 -7924 0
-758 -4828 4949 0
9232 1660 126 0
-2180 -8189 -8353 0
-7370 -7295 5360 0
1918 -6322 -3322 0
9439 7633 -8761 0
3324 1068 -6223 0
-754 4594 -392 0
-1677 -681 -4454 0
-9395 4637 4091 0
-7083 -3039 -18 0
9699 -8048 -6198 0
118 -7019 -5816 0
-6316 5716 -899 0
-3149 -3935 -4764 0
5372 7719 9534 0
-5687 -9653 4376 0
3080 -1354 9807 0
-3252 -5357 2852 0
-2769 6536 8148 0
5737 -7188 -7200 0
-3219 6651 -1547 0
-5990 -1030 3362 0
-1167 581 8794 0
1481 3711 -575 0
-7652 6476 -2459 0
-309 -8536 -2551 0
-1962 -2124 3737 0
-9429 -580 8005 0
-1552 370 -5861 0
2361 9630 -8241 0
-1607 9118 6194 0
-4496 -8427 2305 0
3337 -9682 -179 0
4494 8708 -7869 0
6114 -9415 8490 0
9598 1412 -9646 0
3065 8178 -1178 0
641 -7513 2523 0
-9043 -9431 8924 0
-3079 -9921 8382 0
3643 4199 4550 0
-8257 -8873 2714 0
3135 -6633 -139 0
-4388 -2938 -8742 0
-355 326 1652 0
1297 -4997 4450 0
-6785 3962 2962 0
-9213 -3272 -2909 0
7516 1341 -6069 0
23 6625 17 0
1889 -5 -9514 0
5689 2412 4091 0
2038 9867 -1891 0
-1389 -7842 7733 0
7686 5427 -5344 0
797 -6958 -6440 0
2332 2655 -2810 0
-4843 -2715 -7113 0
3893 -260 -7158 0
9903 -9157 -7210 0
-1059 9915 5416 0
3324 -598 6661 0
1439 -4270 -2914 0
8048 605 -7551 0
4821 2630 726 0
-4321 -2025 2990 0
-6418 1356 -3045 0
-2613 -4783 -7533 0
8130 1563 -3421 0
-3919 3480 1154 0
-6444 2506 7381 0
1618 -2647 -3263 0
9672 9207 4879 0
-759 8081 6501 0
274 6707 5149 0
-9314 8433 6881 0
-961 -3919 5619 0
6803 5541 92 0
7442 2052 6181 0
-7231 9919 9245 0
7926 -1857 -2352 0
7771 -3676 6773 0
4927 950 -4847 0
-6472 -4043 551 0
7339 -9431 4888 0
-3314 3879 9423 0
7073 -912 -4389 0
-6022 -8869 5787 0
-1957 72 -3961 0
8150 7026 3460 0
-5503 -693 7710 0
3382 -2699 5242 0
-3871 7889 4304 0
5772 5599 -3740 0
118 -9861 -8756 0
-4643 -4823 9063 0
-532 -4527 1943 0
-1663 5503 9156 0
7921 -1387 -8504 0
2130 -89 -763 0
6552 -6756 -5334 0
-9493 895 8308 0
-3515 3798 2887 0
-6774 3742 -5089 0
3329 -2079 452 0
6722 -3880 -1655 0
-1029 -5435 6759 0
-2097 -3197 4042 0
-5718 2760 4318 0
7521 -8197 2663 0
3844 -8901 7332 0
-7195 -5695 -4656 0
8261 9836 8992 0
-2033 4057 9766 0
-2175 7980 3685 0
-6038 -4171 6911 0
2526 -6862 -6295 0
-101 -6004 -7976 0
4469 6311 -2796 0
9467 162 -1089 0
-1566 1671 -5512 0
8244 4044 9738 0
5654 -2980 638 0
6260 -7942 -5019 0
-9316 -6537 5380 0
-361 -2961 -8152 0
6492 9635 4338 0
-4103 -6727 -1047 0
-211 -2119 -4386 0
4985 -5423 5619 0
-69 4627 519 0
5902 -3856 -2134 0
-4749 -4290 1318 0
-9176 -7256 -9441 0
9863 -5405 -7331 0
6772 -1111 9590 0
3788 -1799 3847 0
-1222 5859 5324 0
-8944 182 807 0
7073 1268 -8864 0
4329 -8465 8061 0
-7111 977 -2937 0
6215 -945 -1645 0
-4938 -9276 8877 0
4910 -831 699 0
291 -4966 9463 0
3780 7972 1174 0
1936 2664 -9883 0
9116 4427 1888 0
365 5592 -936 0
-8312 -5522 6167 0
274 8440 80 0
229 3156 -7222 0
-8954 -8414 -7326 0
-8749 -1838 9290 0
6693 -9112 1161 0
4255 -6300 -7546 0
-4581 -476 -1306 0
-2419 5269 4722 0
-4594 4540 -3478 0
2421 4437 2043 0
-5335 -9948 8518 0
1336 -975 699 0
9932 769 612 0
5410 -902 3650 0
7498 2288 1503 0
-3597 6211 6493 0
-2360 4458 -7001 0
-7221 2432 -5153 0
8309 -1115 9710 0
-1328 4989 -8281 0
7986 9555 -6403 0
1151 1149 -2739 0
-8496 1312 -582 0
-3670 -2862 249 0
8742 7310 6919 0
6251 3842 8149 0
-6771 5533 2063 0
8313 -9199 -2913 0
3979 -8738 7260 0
-7417 -7661 -7781 0
-3929 -596 7256 0
8183 -4353 -9947 0
-5760 -2247 1203 0
-3510 -196 -6071 0
9414 3887 3338 0
-2860 -6784 1610 0
-2693 3146 1372 0
-8177 4672 9258 0
-9531 9681 -3669 0
-8117 -9164 6281 0
-5826 9734 -1965 0
-1325 -8351 -7811 0
1517 4461 4419 0
-9956 -226 3211 0
3992 -2386 1921 0
1396 2424 6385 0
-2412 -1464 -660 0
-2732 3605 3636 0
7838 -5812 3543 0
74 -4857 -241 0
5781 6633 -4472 0
4653 -7948 6143 0
-8948 3006 2816 0
-6102 8559 -5867 0
-7900 8200 -391 0
-7943 -8957 -4076 0
-428 -8827 -5880 0
-4731 6627 3510 0
6851 532 -9941 0
5343 5591 3449 0
1497 6954 -261 0
8794 3571 8132 0
2635 9154 -8474 0
-6480 7062 9381 0
-6292 6036 1349 0
9982 -6207 9341 0
-4646 9011 746 0
219 -1975 5187 0
5836 3184 -8584 0
1895 -9174 -8036 0
-6097 62 9849 0
-3273 9557 4081 0
1320 -8603 -1018 0
-7667 -2465 4783 0
7012 -9746 1746 0
-8028 1078 2146 0
-6482 -664 7595 0
-6251 -438 2573 0
7283 6548 5589 0
6421 5879 -706 0
1319 -9853 3730 0
6560 -5975 -6397 0
-3453 2009 -1480 0
9468 -1333 -3278 0
-7177 7320 811 0
8520 2684 -4376 0
-4633 9628 -5776 0
437 7442 -8635 0
4198 -2258 2343 0
9216 9528 -3627 0
8015 8751 2898 0
-6804 -7314 -4020 0
5848 -7244 -8649 0
-1236 -6100 -3409 0
5171 2732 -6990 0
5078 -1351 -9511 0
-1999 2580 6251 0
-8944 -9418 34 0
9595 3908 -7624 0
839 -9133 9111 0
-2444 -909 4802 0
-6650 -213 -4312 0
2643 5976 -747 0
-496 -8917 -8432 0
-9568 -1157 2821 0
-8161 9209 -3054 0
9289 -906 6154 0
4079 -2677 5572 0
-2958 813 3458 0
-43 -9107 -8531 0
6111 -4873 -928 0
8251 -2314 -2723 0
4605 -6938 -2987 0
-1204 6574 7729 0
-7076 -4507 -4516 0
-5364 3651 -424 0
-8030 -9249 -7060 0
3273 9772 -1844 0
2183 8526 -7567 0
-867 9315 5373 0
-8013 855 -1360 0
1702 7829 -2561 0
2023 -5973 6648 0
3431 -4210 -4189 0
3795 -6003 7189 0
-1737 9808 9431 0
96 5967 -9899 0
-5254 -4752 -9526 0
4713 6790 4162 0
7144 -6668 7347 0
3669 2442 6290 0
-1874 -9439 7235 0
2957 -1282 -7908 0
8852 5383 650 0
941 7560 -8159 0
448 -296 5015 0
-955 3578 391 0
5143 -4978 3156 0
-1269 -8952 -3636 0
-8551 5613 -5165 0
-7928 -1519 1590 0
-4468 7460 -9102 0
2735 -3845 117 0
-5713 8968 -7276 0
-8906 3742 -3587 0
-387 3544 3890 0
-3925 -8689 -8386 0
7994 9855 7033 0
6056 2494 -108 0
-6009 9850 -9238 0
-586 -7852 -8017 0
9496 509 -5085 0
-1692 -2988 -1156 0
-4238 2905 4869 0
-5779 1085 -9946 0
-6888 -7946 -5390 0
2200 4168 -9160 0
-3453 -8723 -7991 0
-7983 3285 6607 0
738 -2994 -8099 0
-3165 1555 -8859 0
-1393 7062 6250 0
-8909 -4347 6042 0
4253 -87 8850 0
-3695 2625 -2350 0
-2411 -1511 -3742 0
-26 7182 -2933 0
-9138 -1648 2859 0
6684 8253 -6371 0
8393 8832 7444 0
-3359 2642 6604 0
-4764 -1136 -8330 0
6457 -8083 708 0
-4912 7221 8052 0
5869 -2942 -7365 0
5782 1131 9737 0
-5615 -7628 4854 0
-194 3884 -1714 0
143 -9556 7443 0
-2130 3487 -1770 0
-3949 -4613 -5689 0
8359 -9785 -2675 0
7207 -526 -9258 0
-1233 -8605 103 0
-5855 3502 -8372 0
-900 1737 -5211 0
2402 -2673 -1403 0
120 8386 9291 0
-6107 7834 -6829 0
1044 3753 -2584 0
-3628 887 6999 0
-1056 1970 -4443 0
-4005 -4243 1703 0
8339 2342 -1637 0
-9455 5139 8373 0
853 -4764 -5388 0
2063 2554 5090 0
-8380 -1577 -8392 0
7192 8977 -3542 0
223 4236 -9035 0
1433 -419 -2322 0
5158 -793 -9126 0
4744 7842 9957 0
2245 2901 -8460 0
8858 -6188 -7452 0
-1142 6087 8251 0
4847 -2782 5742 0
-1916 5401 9502 0
-6788 -6157 -4424 0
-9891 -1079 -3340 0
47 7146 -2704 0
-8423 6921 -4156 0
5097 -6451 8681 0
-3180 -1753 -2134 0
1756 4915 4270 0
1691 -8669 7102 0
-8052 7756 -4531 0
485 -3125 3317 0
832 8902 5648 0
-2659 -7181 9451 0
-8823 4127 -2353 0
-4979 2224 1761 0
4005 -1904 3815 0
5971 -5440 -8899 0
367 8143 -3865 0
-6126 -3270 9657 0
4740 -4770 -7446 0
-162 8405 2043 0
-9523 -1152 4533 0
-6602 7304 9189 0
-9789 -5503 -1690 0
3841 -5963 7196 0
-9762 -2240 -6877 0
-8401 6794 2110 0
5890 -3385 -6456 0
-6705 -3334 4744 0
-9982 8126 7941 0
-662 7017 4928 0
-2825 -561 -3693 0
1599 -3168 937 0
-6292 3775 2083 0
-5129 -7992 1201 0
654 -8913 1663 0
-5109 7046 -212 0
4792 -1071 6851 0
-2324 9658 8183 0
-2595 9215 -9104 0
-8929 -6232 -2054 0
-2636 -3433 6626 0
-7781 5723 200 0
5224 6358 -321 0
-2829 71 -2837 0
2154 -5313 -1381 0
-3623 8954 -1052 0
-9959 8125 -6334 0
-230 -1498 6501 0
-2879 2563 -8977 0
-291 -8317 252 0
-9499 -7363 -7388 0
5141 9601 6609 0
-8525 -1566 -276 0
-367 -1264 -5149 0
1983 3708 -6753 0
-8061 7030 -1588 0
8513 99 -1298 0
7395 6210 8895 0
9035 -5476 9913 0
8372 6932 1539 0
-4564 -4103 4379 0
1985 -1618 -1764 0
744 -1058 3386 0
-6559 5583 5517 0
-4595 -3070 9646 0
-2726 -9516 -788 0
-4513 -3650 -3924 0
-5166 7710 3489 0
-5843 2049 -986 0
6539 -5185 -3997 0
-1616 4572 -6864 0
9843 -3486 5561 0
9487 -8699 -7647 0
4277 -9228 -8979 0
-5751 -9190 1167 0
-3953 652 1232 0
8625 -9840 -9745 0
-586 1639 2907 0
28 3352 -6556 0
-1051 4136 -9471 0
-9388 -1602 -5104 0
-6150 -9060 -2306 0
6199 5573 7514 0
-5292 -3038 -7073 0
-3061 4433 -8485 0
2499 8350 3923 0
-3538 301 -540 0
-1202 -3822 -4578 0
8877 -9355 -2654 0
3012 -1645 4677 0
8948 6491 2001 0
-580 -8336 -4583 0
-4703 -1844 -4565 0
-6049 -4006 1506 0
5213 -5655 -8632 0
-7691 -5035 6708 0
-9260 390 -7877 0
4010 3125 -2949 0
-6190 -1832 -1687 0
-6526 -5017 -9103 0
2511 8059 -8381 0
-5438 -5633 -7304 0
-1596 2274 -6737 0
2833 3700 3439 0
1775 558 -3243 0
-3138 4866 -5158 0
8846 -1650 -6188 0
-8438 -1129 -931 0
9915 -9749 1908 0
-2879 -3961 860 0
-3978 -8866 -6834 0
-9226 -2451 6089 0
9668 -73 4048 0
1767 9551 -2167 0
3977 -2897 -7815 0
-2324 -9204 1636 0
-8087 1409 3815 0
-3575 3410 -2489 0
-7194 -9090 -681 0
-4725 -5519 2418 0
5326 -2615 4194 0
868 -769 4612 0
-8225 7364 9366 0
-9618 -7758 8508 0
5192 4703 2284 0
-6602 -2096 554 0
-6862 -6491 -7511 0
-590 1810 3107 0
2347 -2414 -5567 0
-4010 735 -1897 0
8572 -2731 2415 0
-3163 5464 7436 0
441 937 -3883 0
2991 -8525 -492 0
-9044 4753 642 0
1609 -7742 -8010 0
-5092 -2637 8151 0
1210 -634 -3156 0
-6450 -669 7449 0
-1345 -1874 -7722 0
6178 -1718 4577 0
3498 -2033 2932 0
9804 -473 7451 0
8836 -9829 -87 0
1076 195 -977 0
-9192 2494 4898 0
-8795 1829 8785 0
-5629 6441 -2363 0
1401 856 -9115 0
9652 -9099 -5683 0
-6810 -8147 -9931 0
5782 7773 -897 0
6982 5200 7930 0
-2358 -9247 6909 0
-9595 7081 4358 0
5112 -334 -6771 0
1573 -7666 -9782 0
-3429 -694 -195 0
-7173 -939 5753 0
-2827 -7718 542 0
125 2862 5535 0
4526 -9573 9123 0
142 1481 -6608 0
-5173 -3209 494 0
-5974 -7829 8559 0
5270 2478 -2502 0
4649 -2555 -7425 0
6589 7906 9332 0
7077 -8825 1797 0
6907 6504 -2884 0
-8413 4994 -3008 0
6165 -8928 -2951 0
-5406 -2059 8515 0
83 -6871 -5319 0
9981 2972 -8407 0
1146 2184 -6665 0
-2400 9315 3473 0
-592 6456 -1959 0
-2199 2684 567 0
-9032 -1956 6861 0
5957 -719 -4098 0
9420 -62 -50 0
1356 -3832 -9379 0
9031 -197 -669 0
-3614 12 1794 0
-8850 -1959 -6895 0
2151 1808 -1868 0
-1032 5643 -6599 0
-5393 7105 -9833 0
-7521 9315 -1974 0
-7425 7807 -3616 0
9318 -6028 -2532 0
2110 -4853 -9983 0
5219 5133 -9785 0
-1558 -9113 -2008 0
-9410 -4384 5941 0
-8450 5959 3838 0
-1746 6340 205 0
-9864 4517 4560 0
-3737 9122 -4804 0
-2716 -2727 2312 0
4534 -8573 -9079 0
-2713 9928 -41 0
6658 -7951 5238 0
-9596 -4411 -9696 0
-6176 -630 2855 0
-9581 -7857 9664 0
-8221 -8131 9519 0
-5436 -7081 3541 0
9172 -6305 9956 0
-6572 -8836 -9581 0
6301 4817 -5149 0
2516 -4231 -2185 0
-6707 -2073 -8151 0
9045 9356 -6404 0
-4052 543 8747 0
-7202 -3904 -4659 0
-90 4124 8240 0
1833 1901 -7537 0
-943 -9855 -1905 0
-2786 2680 -19 0
-8309 -9306 9926 0
3293 4298 2367 0
-8090 -136 8508 0
2261 3243 -4285 0
4532 7825 -8996 0
76 -8180 4000 0
4453 632 -5819 0
9927 1477 2202 0
4575 -8551 6622 0
-9309 -8437 -7608 0
5185 -9672 -4219 0
3305 -5078 8981 0
725 -2031 8007 0
-1598 -5023 9087 0
-7367 -7858 -5942 0
9042 -106 750 0
-3503 1504 9171 0
-4812 7265 -1562 0
-7880 -6822 -3253 0
-9166 1507 5545 0
6401 -8287 -8128 0
-5938 3947 -3453 0
-3315 -28 2886 0
9460 -8771 -36 0
-2970 7510 -6464 0
8098 9200 922 0
3069 5696 -6966 0
-9552 2397 436 0
7295 5668 8751 0
-6946 -7305 5412 0
-8379 -4233 7174 0
2963 8810 -630 0
-9035 8485 9287 0
2003 -7091 -984 0
5885 -9656 3465 0
-1690 7461 -6319 0
5942 9102 1390 0
8077 -6915 -4592 0
1389 -3000 4523 0
-7766 70 -6710 0
-1180 1697 -7053 0
-2998 -9116 -956 0
3441 694 9413 0
1942 1941 2782 0
-5714 -45 1223 0
3035 -3486 -4949 0
6137 -6968 8388 0
-9357 528 4434 0
2795 -1032 -809 0
-8963 -5872 1266 0
-2732 7519 -529 0
4796 -4309 3436 0
6 4210 -3764 0
4934 -1098 3175 0
-2445 -5857 2131 0
-583 -8428 4656 0
-1279 -277 127 0
1581 2959 -1048 0
-3170 452 -8383 0
9 -1162 2154 0
7142 -6891 -8316 0
3611 4217 7277 0
-102 8677 -6676 0
1206 7289 -3924 0
116 384 -6878 0
-7754 -1285 -4447 0
-7965 -4483 -7218 0
-9783 4736 -8080 0
-7787 1191 7936 0
-5155 9314 8168 0
-4318 -9878 5990 0
-7609 -2381 -4310 0
9791 274 2737 0
2150 -3280 -2288 0
4992 2349 3882 0
-1061 -3334 2269 0
-4274 -9170 7646 0
2175 7656 -6461 0
-8637 2177 -519 0
4165 1378 7340 0
2106 -1730 -7019 0
2425 -8760 9902 0
7129 -1023 -3064 0
5561 -1871 -6328 0
-8985 -195 -3328 0
-3639 -9375 -7621 0
-2193 4138 7825 0
3778 -3348 9396 0
-5773 -9396 -7844 0
-1832 2067 -1670 0
7331 8316 -6809 0
3651 4625 -2837 0
-8092 267 -1979 0
-1768 -3728 -652 0
1781 -6471 893 0
6613 2086 -6044 0
-3062 5546 -9249 0
8869 750 -8651 0
-9674 2915 -3001 0
5196 -1716 -3176 0
-3029 -7492 -2020 0
-7533 2324 -3551 0
7328 -2347 8024 0
6338 -8906 -3797 0
3897 -5347 2207 0
6416 -1130 -720 0
-3120 4038 -3950 0
-5620 6274 -8564 0
7334 4604 -2868 0
6265 -5455 2139 0
3936 -4460 6778 0
1055 -609 5783 0
5945 -9220 -8527 0
-480 -2089 1870 0
411 -2576 -6308 0
8681 -3547 7305 0
3756 4862 -9613 0
-5018 -4776 1084 0
440 2300 4629 0
-8521 -3461 -5609 0
1953 -9044 -9188 0
422 7762 9097 0
-5016 -1689 1770 0
8138 5195 4814 0
-1282 8680 -9319 0
-466 -408 -1666 0
-461 -9438 5989 0
781 1122 7376 0
2459 9389 -1937 0
4277 -847 1015 0
-8899 860 6753 0
7129 9885 2693 0
-8490 5780 2013 0
3068 1538 -4430 0
1327 -1094 -7781 0
1660 8471 -9259 0
6664 2315 3088 0
4719 -2097 8244 0
3744 -2787 7474 0
9450 -4183 -621 0
-4774 -3207 -4200 0
8750 1065 -3666 0
-4326 2796 -5175 0
-5508 -3114 -3977 0
-4617 5654 -7010 0
-5453 -8727 -3335 0
1525 -4849 -3039 0
-6733 -9006 7899 0
-6595 9913 -1318 0
8147 2541 6273 0
4502 -8937 4163 0
-657 9049 -6011 0
9165 2458 -4521 0
-1985 4043 -5635 0
-9677 94 -9633 0
-4885 4312 9360 0
-8816 948 -6098 0
-3395 -5635 -8593 0
3400 535 8195 0
-4614 7874 4608 0
-9890 6968 -7768 0
-6406 -9164 2454 0
6902 -1281 4634 0
-4203 1079 7562 0
3812 -9553 -3863 0
-8684 8703 -8412 0
-710 5294 -1524 0
-9100 -7534 -5399 0
-422 8551 -5425 0
1905 7183 -1553 0
-3795 -7762 -2904 0
6416 6185 -9490 0
-1142 5800 4351 0
-8069 6940 4573 0
746 -4071 9829 0
-6718 -7871 511 0
-8820 -6574 -9377 0
3949 2889 5589 0
3053 7752 8417 0
764 -9543 310 0
1488 8888 9256 0
-5650 -5680 -3807 0
2028 -6391 638 0
-7577 -4560 -989 0
2518 -8396 1118 0
5732 -7936 6952 0
1338 -6854 -9341 0
-1717 8607 -2842 0
-940 6708 -458 0
-7014 -8674 -9217 0
4464 7091 9340 0
-8435 8746 -7190 0
-3950 208 9235 0
450 -772 -436 0
8912 -402 -1422 0
-9029 371 -4922 0
-5459 -5048 -7428 0
-4166 -2476 -8885 0
3897 -9052 -8259 0
-2921 3222 7035 0
9690 8701 -1916 0
-5306 8522 -1955 0
-6151 5214 9263 0
-9147 -996 -3524 0
-5128 6311 -9800 0
-5472 -516 8571 0
-5958 342 8389 0
9474 -8528 6379 0
-3071 5427 -9448 0
-3059 -9651 2334 0
1408 4962 -1810 0
3274 9267 9177 0
-428 7828 -9634 0
-1947 -1762 -1447 0
3595 2198 1973 0
-6463 9017 -6119 0
-7608 5278 4042 0
-9097 8003 -5489 0
9357 4847 -3607 0
5202 -4173 -8105 0
-877 -963 7088 0
9930 -700 1473 0
-5876 -9233 77 0
1820 -6067 -5187 0
-504 229 9489 0
-7901 7706 8925 0
-8262 2818 1229 0
524 -944 -2885 0
4494 5879 -6989 0
-2375 -7310 -536 0
6208 -3394 -2556 0
-5366 -3894 -2051 0
2614 6157 -4160 0
-5216 9869 7843 0
210 3141 -7666 0
-3579 -408 9935 0
6110 -9682 -6599 0
478 7104 8300 0
-6606 5121 -5438 0
1511 5298 7074 0
8897 9603 7778 0
-5301 -7891 -3616 0
-7351 -3123 -2936 0
4724 -3216 3358 0
-1971 3074 7750 0
-3530 9052 -8573 0
6143 6525 9706 0
3041 4072 1800 0
9038 7382 -1780 0
1613 1049 8914 0
8355 725 7454 0
6680 -9444 -4466 0
4407 316 -9157 0
-5477 -2620 -4233 0
-4525 6864 6862 0
8631 -5752 -2836 0
-4658 -7928 -612 0
2503 -3383 2561 0
9353 4095 8520 0
3020 -3498 -1165 0
-2659 -6123 -7841 0
127 7760 5657 0
-7372 8360 -8178 0
7706 -4583 -8502 0
-7614 6271 -7929 0
284 -5573 -8861 0
3838 9411 6541 0
1027 5172 -3280 0
-7584 -4437 4062 0
-6321 -5959 1375 0
1937 -709 2163 0
6750 9359 3165 0
-3871 -1902 -8622 0
-789 -8999 8140 0
1892 8034 -7669 0
9686 -2076 3699 0
6551 -1036 7212 0
9239 -1863 3477 0
-5643 -2888 1724 0
8639 2824 -29 0
-6536 5072 2114 0
-6507 -3374 -849 0
-916 2420 -2717 0
2918 -5443 5208 0
4856 -7720 3393 0
-2513 -7633 6064 0
-827 5134 -2876 0
-3339 6100 -2877 0
4910 7293 -5000 0
-7982 -5234 -3166 0
6435 -6442 -3094 0
8850 -6323 6725 0
4939 5650 -1614 0
-5073 -7714 6177 0
-5133 8457 4378 0
6640 2635 -7069 0
7500 -302 8798 0
4667 9738 9556 0
-3534 3992 -4421 0
-1498 -2309 -5046 0
-7 -4786 -5422 0
-1933 -1057 726 0
-3529 794 866 0
3098 -1599 1959 0
7447 6610 -8966 0
-809 -9123 -2734 0
9138 7757 -4808 0
-2749 271 7642 0
-7382 2501 -9768 0
-3881 -2560 4103 0
6046 5406 -1175 0
-5614 -9259 4002 0
9875 -606 -4291 0
-1221 9795 -8643 0
-8760 -1416 1471 0
-5976 6839 -4122 0
8965 941 -2760 0
7098 9379 -56 0
-3000 5943 -8069 0
4250 -7778 -7835 0
-5992 2289 -1875 0
-3901 -762 4952 0
-7963 -7776 1639 0
-8648 -975 -2356 0
3349 -7824 3143 0
-7257 -4711 3818 0
2104 4491 9024 0
7276 7266 -6248 0
2465 -5773 -9417 0
5047 9655 -1208 0
3105 -704 240 0
-3716 -3590 -4285 0
-7226 -8892 -4860 0
-706 -8444 -2537 0
8090 2884 9574 0
9290 4031 -1794 0
-9495 -3351 -8711 0
8857 -9705 696 0
-215 9193 6422 0
1974 -3951 1131 0
-2631 -4840 -5792 0
-9459 4048 -1137 0
-3913 -1522 7871 0
2659 -7322 -2141 0
-120 -6088 -2813 0
6398 -1674 5193 0
-1080 -5031 -9464 0
5800 -3729 -353 0
7494 -2294 2731 0
-1966 9137 -5786 0
4444 -6366 5541 0
-3343 7473 -3504 0
-2333 8472 3298 0
-7681 -7553 -5465 0
-9736 2155 7793 0
1525 -9960 -8329 0
3265 483 7479 0
3383 -7332 -6349 0
7029 -4864 -4513 0
6475 -7240 9812 0
9671 1894 -6981 0
4186 4009 5888 0
4244 -3181 -3776 0
-9815 1591 6707 0
-9259 8669 -7500 0
416 -5383 -1353 0
7745 -4397 3676 0
-7352 3864 -1127 0
1041 -8593 7172 0
-7222 1528 6926 0
1958 -939 9716 0
-2185 5220 -3166 0
-6759 -2121 -964 0
-1499 -7600 -4957 0
3804 6658 3720 0
-2301 -2516 -3877 0
5266 -1883 1106 0
6980 3663 5848 0
-699 8691 531 0
157 -9904 1721 0
-3792 5157 711 0
9230 -4127 -61 0
-3801 8614 -9320 0
1215 -3083 8260 0
6415 -8603 6526 0
-1152 -4941 7023 0
4013 5570 9271 0
-6568 4685 4272 0
-2872 7719 -6544 0
3767 -6549 8220 0
3618 3718 -4949 0
8725 -1143 5704 0
8512 -2587 4367 0
4124 2379 8872 0
-2865 2825 -4792 0
6194 4533 1335 0
-8976 8118 -137 0
9421 -4314 121 0
6265 9397 -6778 0
-269 3713 -8682 0
3399 -6251 -6817 0
2055 -4850 -7646 0
4419 -6052 -5208 0
-3754 -6511 1914 0
692 7969 2922 0
-8904 6329 -2252 0
8035 6807 3394 0
3252 8239 -6046 0
-3599 6453 -7872 0
-1114 -9107 -3729 0
952 2652 -6214 0
3028 3567 8678 0
5575 -5991 -9977 0
-2529 8319 -2629 0
3004 -3364 -1509 0
6651 -8792 3345 0
5407 -9391 8039 0
6651 -3934 8746 0
824 -5486 -3804 0
-797 6127 -499 0
-1823 9825 7150 0
170 6948 9610 0
-1203 -8337 486 0
-9054 6434 1896 0
-873 -1386 -1522 0
1602 -6081 -960 0
1003 3871 -4200 0
-3592 -7703 8220 0
8033 4421 4759 0
1958 9681 -1774 0
5793 -1942 -7802 0
9465 1801 -4082 0
5952 -1911 685 0
-4495 -6275 -3825 0
3334 -4224 5506 0
-6266 2722 6732 0
3709 -8044 -7083 0
6715 -5824 -2252 0
89 4134 -3355 0
7894 -5937 8814 0
9780 80 -4380 0
2479 -6824 2391 0
-674 -5897 -7864 0
-353 -2853 -7112 0
9809 9137 7668 0
-4891 7401 6947 0
-6378 7531 702 0
5 9218 9060 0
-8373 4355 6426 0
1719 9094 343 0
6512 8958 4678 0
5533 2599 5322 0
4868 -8597 -1834 0
-4641 -6241 2167 0
-8625 9596 7997 0
2737 -5807 6720 0
-6 5802 8507 0
5476 670 -5645 0
-4568 4717 -6047 0
-1854 -9157 4780 0
9948 5535 -8795 0
7645 -3409 2463 0
7802 -5148 9381 0
5925 9538 9102 0
7211 8396 -9081 0
-39 -4615 -5522 0
7311 -1447 1976 0
9057 5718 7137 0
-3657 -1450 4930 0
7193 3490 7544 0
-4766 2645 -8029 0
2775 -6731 3035 0
-9712 9749 5287 0
-4600 1473 395 0
5670 3293 8030 0
3030 -807 9063 0
-3832 -669 6870 0
3565 8841 -1630 0
9908 8453 6495 0
-8055 5732 -4539 0
-2367 1789 -8672 0
-600 6930 -6365 0
-9716 -813 4512 0
-8064 -6541 7619 0
-1917 8014 -1253 0
5132 -1837 2035 0
2752 -3178 -1353 0
8936 -8834 8262 0
4274 -7215 -4121 0
-1517 108 -8781 0
3615 9507 -638 0
-5137 4120 -5647 0
-6093 5890 -878 0
-2807 3432 -9718 0
9969 -1022 6776 0
-345 -5453 6278 0
491 8652 -9951 0
-2896 -29 -8857 0
-4698 -9780 5990 0
8517 406 -365 0
-4771 -1439 -3034 0
-4537 -8523 1795 0
-906 -367 -3153 0
4852 2616 -3401 0
3954 1584 -9187 0
-8332 -5416 -7971 0
2344 3000 1820 0
7104 1891 536 0
1699 7630 -7314 0
6636 -2722 1393 0
3334 -9109 -1746 0
9000 3987 5535 0
5564 -2613 8255 0
3373 -6438 -5652 0
8234 -795 3461 0
8513 3493 -9751 0
4745 -1506 9123 0
-5237 1041 -3862 0
-2589 -7519 -7427 0
-7873 4838 -7651 0
-4613 -9877 8480 0
-9067 -8106 8212 0
8120 -3394 -2377 0
-7327 8764 -7164 0
-9604 8835 -8952 0
-4619 9859 -5506 0
-5765 358 -3215 0
-488 1516 -3060 0
8654 -9931 -8204 0
-6105 8558 5366 0
8639 2028 4765 0
-3451 -6209 8742 0
9020 -1810 5982 0
5227 -799 7080 0
5794 6635 -2029 0
8212 -8107 4999 0
2246 -1872 -5985 0
6083 8388 -3978 0
8545 -9846 -6461 0
8658 3274 8447 0
-3955 -4759 1526 0
-8514 3324 -6305 0
-3103 -3908 5434 0
5344 3412 9968 0
5992 3012 -6693 0
7403 7174 8524 0
1615 3205 -8533 0
2324 -4469 1089 0
6073 -6509 2021 0
-6682 -7457 9059 0
-8577 6843 -7780 0
3254 -4313 -3954 0
-8712 2171 -4013 0
-666 4956 -335 0
4372 -5826 525 0
-7615 2947 -6284 0
9862 7355 6408 0
145 -5601 -7855 0
6021 -1576 -3013 0
-2175 -7590 -2358 0
-9448 -1836 -6580 0
-2587 -3594 -1840 0
9812 9720 6588 0
5837 7658 6154 0
-2242 -51 -7657 0
124 -1837 4280 0
2713 5494 -2425 0
770 3895 -5564 0
7771 -1334 -3228 0
-6920 2799 -7339 0
-4784 -5461 -2983 0
-3571 105 -1896 0
5999 -9759 4553 0
-2776 -7798 -5771 0
6453 4779 7583 0
7057 -808 -7575 0
629 5204 2573 0
-4390 -3464 8151 0
6908 5378 8025 0
-7912 6440 -3965 0
4365 -3168 -8198 0
-8495 -2073 -6553 0
-7497 2328 -2879 0
7831 4668 3905 0
-5793 5408 -683 0
-7192 -5724 4572 0
-6106 -192 3232 0
-8119 -9061 4167 0
-1603 -6471 -6469 0
4357 -5060 -1995 0
7386 -3223 7750 0
-4854 8201 -4886 0
-1051 1867 8682 0
-7709 1128 -6953 0
601 -6497 -8150 0
-5554 -826 -9644 0
-659 9686 9514 0
794 8920 7140 0
-9367 -4051 8271 0
4387 50 -9242 0
7786 -4026 -8195 0
9764 -6221 -705 0
-81 -1762 -9344 0
-4514 9638 393 0
3584 7270 -3266 0
-4232 418 933 0
-6055 7554 -4839 0
-4361 -9315 -9253 0
-3088 -1537 -3180 0
7626 3825 8280 0
-5350 -800 -5646 0
6446 -9412 -5394 0
-1502 -1177 553 0
-5033 6826 5902 0
-420 5901 1087 0
-4634 3549 3847 0
7488 -923 -9164 0
-2960 7873 3242 0
5147 2281 -985 0
-7423 6006 1806 0
-3701 8695 9637 0
-6641 2573 -8787 0
-1203 -9072 -1121 0
8325 6482 4416 0
6523 8556 3193 0
-6690 -5310 5381 0
-7865 -7542 -8306 0
713 -8336 -4754 0
-85 3731 4645 0
-5644 -4362 -4004 0
9501 -2038 -9888 0
3963 -5328 -7168 0
-8276 9291 -5056 0
1556 -378 3014 0
-2191 -9233 -2197 0
-5419 7786 -8893 0
6124 -5081 6180 0
4466 -8035 -2851 0
2554 -5866 -9644 0
-1059 2414 6120 0
-7076 -4770 -4012 0
3243 6492 8533 0
-2189 -2611 -793 0
5312 7639 -3476 0
7915 -1013 4071 0
7056 5747 -4227 0
915 -7224 -8604 0
-1978 8469 3967 0
-7327 -4188 4380 0
-8968 -2419 -5174 0
-9526 3738 -6611 0
-8621 -8854 5405 0
8040 6985 -7816 0
3013 9768 6497 0
-6324 -9251 6144 0
206 -1687 -3373 0
810 -2697 -2096 0
-2644 4164 -4477 0
-5551 -3134 -8170 0
237 -2339 3575 0
8010 8264 806 0
2610 1672 187 0
-4375 400 -3210 0
769 1711 -4722 0
8818 5900 -1529 0
4837 9610 -9674 0
-1268 102 4041 0
-7353 586 3536 0
-9329 -7090 -487 0
-7182 -857 -6573 0
-5074 -1641 -6309 0
-2400 -409 2517 0
1852 5300 5831 0
-722 -4734 7403 0
-2456 -6188 -9180 0
3242 5920 -2948 0
1665 901 9191 0
-2846 604 -8412 0
456 -845 -6259 0
-5830 2261 -3971 0
1695 -1985 1218 0
7495 -7112 -2055 0
-9565 -4301 -7393 0
-221 5876 -6744 0
1285 -9000 -8397 0
5366 9539 5560 0
-7380 8901 -5950 0
-736 -4198 -3433 0
5394 -2764 2474 0
-192 3405 3782 0
583 8865 7006 0
-3926 1159 9227 0
5547 1351 -4394 0
2089 -9827 4629 0
-2022 7277 -22 0
4152 -2005 -4327 0
909 4942 5548 0
-2450 -2907 -1317 0
-7334 -3417 -5188 0
9004 -3594 -2443 0
-8771 4102 8069 0
3947 6728 -4543 0
893 9457 3156 0
-8895 5820 1502 0
-7936 -8625 -1550 0
288 5972 -6936 0
-317 9035 -7915 0
-6281 2118 -4277 0
1279 8479 -6417 0
5207 1595 5552 0
-2841 -4902 6831 0
5792 8030 -1401 0
1421 407 -7869 0
4460 7417 5589 0
-8649 -1150 -847 0
-2317 6711 -9006 0
6441 -9040 1873 0
6458 5598 8228 0
1091 4480 -7015 0
5116 8853 -8452 0
1822 411 -2184 0
1085 1682 7848 0
2068 2879 -2447 0
-7658 -5706 7097 0
634 8059 4758 0
-4339 2854 6308 0
3653 6540 -579 0
8367 -8423 744 0
-229 -9356 2390 0
-1673 -8943 -2576 0
-797 -4103 -6574 0
8907 -9531 -5460 0
-9128 -8418 -4220 0
7594 -7617 -4696 0
9259 2613 -8496 0
5956 -2057 -1624 0
-9867 -4914 -5889 0
-6689 1509 5051 0
-2396 6230 4083 0
8187 -3676 6821 0
-7932 -5283 5046 0
-7928 -6520 54 0
8319 2630 698 0
336 -916 2528 0
-7362 3313 -347 0
5879 6370 9893 0
-7789 1575 -3552 0
4653 -8154 -7922 0
8241 2437 -1286 0
-9190 895 -8419 0
2431 3989 -207 0
2414 3377 -6540 0
3909 -4510 1045 0
5614 35 2411 0
-9647 -6960 -9306 0
8132 8099 -7771 0
-2027 -3392 -9489 0
2743 3241 5680 0
1018 -3480 -977 0
7644 2631 5986 0
2774 -8902 -4029 0
1097 -3168 958 0
-413 4773 -1338 0
1387 764 -7087 0
5874 1647 -2205 0
-9437 8616 5888 0
2722 8698 -5517 0
-6556 -9927 -7200 0
6974 -2439 2336 0
8398 4716 -9655 0
5693 9097 -9764 0
5633 3674 6303 0
7838 -8436 1946 0
9926 7234 120 0
5497 2540 -1475 0
-1057 -7543 9898 0
1643 6218 9215 0
550 4649 -8850 0
1773 7457 7694 0
-6549 291 4576 0
-4330 4180 -2090 0
-1092 -2139 -4816 0
-1184 2533 -7717 0
-6709 9434 6109 0
-3002 1199 -6808 0
-4114 -1922 -680 0
-7544 -9200 6505 0
-786 1645 750 0
3175 2457 5602 0
8512 -484 -469 0
4426 -9468 1562 0
-1367 -2421 -8946 0
8564 3739 -3077 0
-3365 -3957 -9036 0
-7393 -948 -815 0
-1315 5479 6808 0
9126 -2813 1189 0
1223 9002 5074 0
-4993 -9879 8684 0
-3045 580 9946 0
2915 -3280 -1130 0
-6924 -4336 9154 0
5303 -2254 -6838 0
8606 5720 -4069 0
3805 -8066 656 0
819 71 7910 0
-430 -7196 1853 0
7972 3859 -8781 0
-7340 5575 -848 0
-8103 1051 4901 0
-7948 5803 5487 0
106 -1455 -4569 0
4254 -2069 -9295 0
942 -9041 7081 0
7804 8021 -6441 0
-1873 5735 2319 0
8013 3665 -164 0
9832 7492 -6338 0
-1440 -891 -5711 0
8424 -1676 -5247 0
-853 4462 7718 0
8187 -8413 -6876 0
462 -2672 -3904 0
-4872 -2668 -7023 0
-7856 9305 -8818 0
-6506 479 9286 0
1215 -8791 -5830 0
5524 -9929 2770 0
1057 -9530 -4933 0
411 -5009 4936 0
4690 286 -7692 0
5144 -3423 5602 0
8116 -8891 65 0
-4298 -1114 107 0
-470 5466 -9948 0
-374 7774 -9886 0
7406 9139 -9428 0
-1306 -2063 -249 0
-2569 -8695 6941 0
-6752 -6439 -3600 0
-6224 6405 -8783 0
-1595 240 697 0
7781 -2997 -9219 0
-697 6319 9096 0
-2992 4822 -9909 0
-1014 9251 -6126 0
9216 -5388 8139 0
-3355 4234 9422 0
-9875 -3906 -9059 0
2571 7607 29 0
-6580 2368 -3298 0
-4974 -7320 -5085 0
-1817 -7971 -7610 0
6675 -4276 -4051 0
7704 -6931 821 0
5261 -3217 4963 0
9276 5270 2881 0
-671 3079 -583 0
9999 -8210 -5851 0
22 -546 536 0
6842 -225 4542 0
6251 -9641 -9249 0
-780 -1208 -9071 0
8890 -5480 4291 0
1186 1290 6610 0
-6150 771 9419 0
8207 4928 2329 0
1925 4016 -9225 0
-2950 -5084 -6214 0
6399 4099 -8537 0
5563 -6973 -1433 0
-7820 -3479 2862 0
-1923 2793 6292 0
-3147 4200 -4104 0
5024 -1702 5012 0
2960 -5283 -3278 0
6278 1507 -9827 0
-4827 -4397 5739 0
-6009 -8086 4002 0
-4652 6009 5646 0
-1872 4829 -9696 0
-7270 -2259 5730 0
-3665 6080 -7272 0
-3091 2748 -7167 0
8196 -4597 -1104 0
-2347 526 6998 0
4756 1664 4945 0
-9825 6778 -3821 0
-3582 -103 8885 0
9265 -5416 -3434 0
107 -9158 -239 0
-4900 -7073 -8864 0
-2057 8157 -8549 0
5471 -3242 -1154 0
-6776 7883 -9069 0
-1528 -5519 8076 0
9409 5439 5315 0
-9137 -6598 2011 0
-5359 -1166 9066 0
3574 -5726 -6671 0
2433 -1392 9118 0
-1941 4494 7152 0
-7222 -8450 -1691 0
-5764 -7839 -62 0
-2183 3896 2691 0
1060 3672 -3565 0
1697 -3043 7090 0
-7971 8345 -4207 0
-5796 -9780 -4672 0
-418 -8243 7084 0
-362 -7778 -1249 0
-2772 -983 -2027 0
1176 2211 2286 0
2664 -4418 4860 0
-1568 7111 3893 0
-6773 7656 -998 0
-6257 4136 5499 0
-9629 803 8865 0
9746 2145 6422 0
-9663 7919 1232 0
9383 -8801 5267 0
-8947 3316 -4856 0
-9215 -1607 -4802 0
-2277 2443 1109 0
4422 -6170 9463 0
-4502 -8687 8058 0
-6199 8533 -2753 0
5419 -6729 -2419 0
5070 7893 8607 0
-6316 7182 9589 0
8113 1764 6988 0
-9383 -7778 3671 0
7639 727 8080 0
550 5697 2812 0
4930 -1405 -1528 0
5137 6210 -3115 0
7779 -9724 -4623 0
-906 1506 1080 0
2773 -4520 3305 0
-3648 -1482 -5538 0
9525 -8574 5198 0
-7290 4231 3319 0
-6374 -3852 6067 0
-8658 -1282 6460 0
1140 8114 -6797 0
-1231 -7256 5592 0
6389 -7201 2400 0
-7773 -2426 -1893 0
-1929 -9866 -9950 0
-2133 -1947 6030 0
472 -5099 433 0
8517 -7421 699 0
787 3532 -573 0
3510 8538 -8259 0
7604 4799 -1846 0
2727 3034 857 0
-9897 715 1477 0
7031 6948 -6163 0
-4394 -6613 9453 0
-742 -6344 9199 0
-6536 -667 -1058 0
9236 2781 3874 0
-7046 -7472 2482 0
-7511 4766 -6581 0
-4438 3882 -5726 0
-4118 -987 5671 0
7801 9932 -9560 0
4787 761 -568 0
6051 1065 -919 0
-4270 -139 7479 0
2159 3884 -9381 0
3421 -1024 -2307 0
8234 -6018 -5736 0
8066 -8405 6028 0
8720 1528 -5085 0
8528 2674 -3055 0
7442 5949 -2037 0
5024 5891 -8188 0
-5477 789 -469 0
-5382 -6897 6617 0
7194 5873 6415 0
-4203 -9279 -6261 0
6413 -2432 3533 0
-7652 -7667 9341 0
5661 -2198 -7613 0
-3296 -9635 -3871 0
8341 -3597 2090 0
1299 -876 142 0
-6407 6353 9173 0
-4496 -7103 -4007 0
2163 -8416 -7556 0
-1535 -4808 8972 0
4535 4721 -4307 0
-5943 -7288 -8216 0
9357 2432 8137 0
-2331 -787 -8318 0
8684 -8099 3201 0
3302 478 -4149 0
-5980 -1775 9542 0
3282 2788 -6993 0
-3530 5681 -484 0
9955 -2991 -8245 0
9012 8450 -7335 0
-8819 6377 -8004 0
3555 4673 7654 0
8291 6986 6749 0
8046 -1582 8288 0
-887 1489 -3063 0
-2580 -1366 1278 0
-6481 3063 3013 0
6050 1801 3984 0
-4864 -778 7234 0
-7582 7255 -410 0
9607 6981 -7600 0
9719 -4504 837 0
8896 -1653 9831 0
-1261 -3812 6169 0
5070 -3079 -6263 0
-7657 1096 -4896 0
861 -1341 -2834 0
-2553 3009 9122 0
7627 53 -6185 0
-6382 -3321 -6550 0
3703 -778 4649 0
9402 -6025 4808 0
9231 -354 9443 0
-8380 -6602 -7497 0
-6539 8516 -5398 0
896 5933 4947 0
-6765 3595 5876 0
-638 3871 -7831 0
-8323 5963 7022 0
6403 5315 -360 0
9504 -8418 5081 0
-6177 6004 -2297 0
9242 1502 -458 0
3321 -4019 6319 0
9467 -6098 8948 0
-3355 -3433 2973 0
-1026 -2980 -2669 0
-1256 9552 527 0
-5387 5384 -4008 0
-2024 185 4439 0
-226 1786 287 0
-7842 -3073 7744 0
-8779 4409 -2097 0
-9465 -2722 -9395 0
6475 -7451 8320 0
5474 -367 -542 0
-3132 9432 822 0
-446 3389 -5655 0
9449 -5194 6844 0
1053 5339 6086 0
-1342 9119 9880 0
1192 9239 1765 0
-4291 5568 -9926 0
7939 -725 -1726 0
1414 2344 -2322 0
-6703 -2679 -8346 0
-6472 -7819 -1565 0
5337 4190 5694 0
-9221 4957 -3534 0
-7933 -941 2442 0
364 7613 -8414 0
7710 -273 1882 0
-1964 8200 6249 0
-8704 9036 -7532 0
-6615 -9152 -4466 0
6888 -7215 -749 0
2781 5757 595 0
350 -2788 7249 0
5678 -6499 -9301 0
-1932 -7462 1262 0
-6464 -5730 6608 0
-1010 3435 -2285 0
8918 -4354 6691 0
8450 -1067 4915 0
5751 9113 -6850 0
7051 5576 -3615 0
775 1583 870 0
9334 5049 4085 0
5442 -9731 -4064 0
-1954 3018 8520 0
-5557 -1049 -9703 0
6806 -4579 223 0
1060 2607 6026 0
-629 -668 5722 0
8654 6727 -3325 0
-1425 6562 -7678 0
-5268 2946 9167 0
8184 -1790 3610 0
-4692 8932 6096 0
-2430 50 1583 0
-8036 6855 -3120 0
-7782 7718 3560 0
7707 2984 -8785 0
-5163 3287 -3988 0
-693 -2121 6885 0
9796 9329 3894 0
5966 -385 -4156 0
2508 -3427 6809 0
-3658 -706 279 0
2571 -423 9297 0
315 -8776 -729 0
-571 6084 -5877 0
-8261 7211 -5991 0
-4751 4681 6908 0
1476 8930 -1140 0
-3470 9433 -8241 0
8965 2180 -6337 0
714 2723 5542 0
3971 -6675 5622 0
-7152 2290 -2705 0
-7626 1594 4535 0
4297 -6250 -2112 0
-792 -4552 3203 0
8062 -9256 9031 0
-8327 4569 -9392 0
25 -4501 1366 0
-2726 4705 3918 0
1632 -369 5482 0
-6990 3069 4253 0
3763 4244 9620 0
5734 -3972 3469 0
9985 -9482 5744 0
-4180 -3994 463 0
711 1052 -611 0
7577 -5807 -2087 0
-6561 -7763 3129 0
7083 -345 -7832 0
-4760 -8202 -2633 0
3433 -1830 -5320 0
9558 -6598 9217 0
-1299 7962 4154 0
5664 -417 975 0
-7164 -7717 6810 0
5657 -2115 2050 0
-8398 5529 9706 0
-7560 114 -6486 0
-7783 4960 -3599 0
-2270 9916 -5091 0
-4447 -9667 -299 0
615 3824 8763 0
4016 7994 7196 0
9513 -8439 -2666 0
-5247 3123 -1500 0
6740 4914 -5333 0
-1462 2586 -4915 0
9253 8923 7461 0
-1051 -5737 3523 0
7990 3856 9597 0
391 2467 -8891 0
-3445 8430 -2109 0
-7442 7352 -2119 0
-7304 -1679 -4716 0
-5777 9983 8256 0
-5835 -6390 -3821 0
-9914 7201 314 0
3411 -1437 1678 0
1460 1249 9745 0
8510 -8017 3073 0
6677 6832 5757 0
-6578 -4580 -7359 0
-1599 2954 8716 0
2014 -1930 9278 0
-9822 -5068 -8533 0
-8369 -290 919 0
-5394 8864 -9476 0
-194 -4426 4125 0
4790 -8668 1448 0
2059 -8961 2090 0
9522 -7235 9583 0
-377 -9752 4051 0
-2937 8573 1754 0
-9866 -7772 -5594 0
349 -4301 -1704 0
3610 -4249 -9493 0
-3496 -3991 885 0
9997 9429 2349 0
-3881 -6810 29 0
-741 -489 -675 0
3452 -6136 8843 0
-6811 7379 -8768 0
9298 3028 6955 0
-627 2116 -4797 0
-816 1467 -6391 0
-9132 -9292 -923 0
-5628 -9075 -3959 0
-9927 9162 4455 0
4221 -8110 6799 0
-351 1513 3519 0
-6324 -6185 -8200 0
-8600 3628 1128 0
8239 -3926 9376 0
-999 -6222 -4714 0
-9314 -111 -9432 0
1187 -4454 -9833 0
2815 7329 -6857 0
8925 7234 3977 0
7191 -8371 -2554 0
-1603 -1171 7826 0
7729 7924 7850 0
-8192 -2881 4264 0
-9133 8322 8369 0
6953 -8887 2172 0
2773 -1058 -6321 0
1988 960 -9892 0
-7038 6531 6654 0
-8841 -5261 -1485 0
-9470 -7604 -3659 0
-1355 8272 -1820 0
-6964 839 4474 0
-8849 6551 -9591 0
-3696 7723 -3735 0
-3193 -5502 3539 0
69 139 5310 0
3599 -4584 -7888 0
1689 -6687 364 0
8574 -5704 3052 0
8498 3602 -6913 0
-3157 6999 731 0
-532 8331 -6265 0
335 -735 7330 0
3427 -4857 -7115 0
-3290 5054 -1563 0
7527 -971 9869 0
-7665 -7335 -8266 0
-1392 -4820 2176 0
-3359 6609 5373 0
233 3086 1218 0
-577 7952 -2649 0
668 4883 7169 0
-2895 -663 9110 0
4113 6591 9212 0
-5741 9093 -8127 0
4506 2745 -8751 0
-9589 5209 -8503 0
2377 -6252 4027 0
-8073 -8311 314 0
8470 -8951 -6057 0
-1139 -3645 -2025 0
-3346 -7640 6132 0
-8832 -8947 -8787 0
-6764 -4039 4461 0
-2163 9093 -5029 0
-5305 -1739 -767 0
8149 -7166 -9246 0
5912 -3335 8074 0
2780 -7680 -7020 0
2385 -3768 -144 0
-3591 -8910 -7011 0
3040 7892 -6455 0
2801 3517 7789 0
5845 3809 6130 0
-6837 -8335 5965 0
1601 -8901 8304 0
-4812 -5104 -6948 0
-5801 -875 -4874 0
-2390 8373 -8361 0
6304 -5554 -5398 0
3008 5230 -847 0
-2322 2848 -8389 0
4865 750 -1715 0
5721 -5306 -7068 0
4453 2339 -4599 0
6983 9714 1377 0
3318 2914 9225 0
-5002 7201 -4305 0
1824 4620 5162 0
-1789 8944 4903 0
6732 -5522 1424 0
6230 7998 -101 0
-7952 1305 4946 0
-9663 -3804 470 0
-4744 1976 -5084 0
7409 -1193 4767 0
-8687 1766 -6463 0
1769 1552 4754 0
8990 -8334 6740 0
6592 2460 2443 0
-1089 8770 -3263 0
-6650 2527 -6176 0
6898 1608 4776 0
-1024 -2189 -1825 0
-7970 2870 6322 0
1732 8587 -5632 0
-2373 -274 1718 0
3442 6783 1642 0
3363 1326 -2627 0
3528 4401 -4601 0
-6910 -8665 6407 0
-780 -2373 -1447 0
163 -7613 4681 0
-7041 1276 -9273 0
4382 8165 -5619 0
-2176 3714 3469 0
4034 -81 -5157 0
2396 -5398 9118 0
-4769 1621 -6336 0
-5393 6537 5105 0
5073 -2767 -957 0
4754 -884 -6762 0
-4249 3051 -9663 0
-7478 9806 -9410 0
-1439 -2264 -4159 0
-4996 -3924 8861 0
2614 8696 6766 0
-2229 9152 2929 0
-742 3933 7306 0
8495 -2896 -1543 0
-8476 4728 -1300 0
-6672 8641 4150 0
-4449 3894 320 0
5467 -7341 495 0
-8435 -2190 2232 0
2018 -9776 -4127 0
-9360 -2311 -7320 0
-4623 9620 8038 0
-6122 -5179 2571 0
-710 -5123 -9362 0
-6105 8634 2850 0
5478 -8735 -9142 0
7634 8596 -7916 0
3839 -4566 7244 0
-6117 6677 -8924 0
3533 760 -364 0
-625 561 7855 0
-533 3499 -4656 0
9696 3105 -4076 0
-5909 6851 5381 0
3612 -4118 8977 0
-4205 -9548 6874 0
7971 6966 -4171 0
-7089 6024 -6523 0
7040 9731 9769 0
-4469 8523 -7925 0
-3410 9155 -9795 0
2339 -259 5207 0
-8159 -971 -4974 0
9648 4362 5972 0
-360 6542 -9021 0
-6730 6304 -2119 0
571 1661 1516 0
-5886 995 3822 0
8594 -3139 9956 0
-1091 -1982 5001 0
-6512 -6097 -426 0
3764 4095 -1913 0
-4705 -7684 8734 0
-4654 -2445 -39 0
7400 6246 4388 0
3487 4655 -7209 0
523 -9173 -585 0
-9392 -3686 1722 0
4222 5014 3012 0
-6771 3647 -8735 0
7571 1835 -7341 0
-1281 -4045 5363 0
-8641 770 -7479 0
8329 9203 1587 0
1974 -1569 -9880 0
4511 -6228 9204 0
5163 -8091 -9663 0
1977 -1410 -2811 0
-3812 -9693 2189 0
-9561 6739 156 0
5012 -8778 6750 0
-5022 -4988 -4260 0
-1795 4148 470 0
5718 -541 -3661 0
-3354 -3400 -852 0
3604 -8024 -7311 0
-3062 3450 -808 0
6138 1280 -6490 0
1342 8017 4378 0
8292 -5275 -3867 0
4743 9400 1681 0
9501 1032 -9371 0
2202 -4612 1351 0
2491 -1364 7625 0
1624 -2700 -2627 0
-5970 -4651 7679 0
-4890 -1481 -5342 0
-9422 -184 -1998 0
6882 -307 -4890 0
5499 -9233 5900 0
7604 639 -8272 0
3111 9574 -7055 0
5938 -2282 -8329 0
8105 -565 8326 0
4535 4594 -7507 0
-3997 -8617 -2868 0
-7770 -4243 -4979 0
-2214 -5327 -8028 0
-6625 -6800 -4088 0
3581 3854 9157 0
-7984 1935 -3456 0
-2383 6351 -2259 0
-1835 6056 -4967 0
-602 7316 -4749 0
-3042 748 -8626 0
8306 3966 6010 0
-163 5641 6149 0
-3361 -2721 -4828 0
4056 8677 -2401 0
2434 5210 8149 0
9206 -1340 944 0
-9541 -7839 3971 0
2221 11 1697 0
-4338 3958 -7275 0
9104 5295 -6858 0
-4804 -1733 -4756 0
3199 2511 739 0
-1438 -5925 5124 0
2898 6099 -7569 0
8763 -3743 -1148 0
1813 9102 3286 0
-8014 -7543 -2284 0
7436 -8581 -6139 0
-3583 2562 9106 0
8322 8995 -2003 0
-4971 255 -2969 0
-8228 7240 5510 0
-1733 7582 -7596 0
5544 -4490 1231 0
-6068 -5671 -6426 0
3169 6826 -6751 0
-7780 8364 6550 0
2025 -3676 5690 0
5085 4934 -34 0
6087 -2083 -3658 0
-3834 3608 -7862 0
-5030 -2917 -8316 0
-4660 907 9650 0
5424 7470 -5941 0
-2314 -5600 9856 0
-966 8858 -7100 0
-3809 -7218 -2649 0
1819 -6295 -1686 0
-8571 -5497 -2907 0
-9608 3073 -9495 0
-3372 -1815 5234 0
9842 -6510 5435 0
77 4145 -8914 0
3703 -3792 -3643 0
4249 6937 -798 0
8090 -2782 -6845 0
-8420 -2768 -5324 0
-8794 913 6849 0
-9586 4741 5619 0
-8790 9504 4169 0
4169 -6147 -4069 0
4768 -7169 7610 0
-8798 7725 6060 0
-4396 389 5606 0
-4862 4190 -2563 0
-3772 -4669 -2024 0
307 -8089 2364 0
-8709 -210 8030 0
2885 7813 -9043 0
-1473 6349 371 0
4376 -8539 3924 0
8136 -8268 -1707 0
7178 -7680 -1782 0
7641 -1409 6376 0
7992 -3707 8892 0
-799 5901 8176 0
5098 -8241 242 0
-6685 -1221 -7328 0
7856 -35 -2314 0
-1474 1154 -5944 0
4664 3403 8049 0
4590 -5264 9320 0
9889 -383 -4403 0
-9313 7739 -6011 0
3982 6060 8443 0
5358 -441 3764 0
-5462 -9702 -6821 0
5415 -805 -6368 0
5452 7937 7335 0
-798 -1792 -8757 0
4536 -6304 6249 0
113 -9455 1907 0
2604 -7642 2330 0
-575 -7401 -2046 0
-3855 -2439 -7856 0
1602 -7736 3729 0
-6068 5350 2670 0
-2223 8139 2642 0
4279 -3549 3570 0
3854 6333 -5528 0
-6092 1272 1362 0
-9616 2384 -6700 0
-8135 4678 -4594 0
-4735 1944 -938 0
-9876 1502 -3755 0
8610 4332 -8361 0
-9336 6912 1904 0
-8810 -8387 6371 0
-5425 -4507 -6522 0
-6539 3828 4770 0
9958 2858 -7890 0
-7594 6454 -6461 0
7935 7336 -1696 0
-6466 2202 9137 0
-2962 -3220 1356 0
45 2992 6195 0
536 1014 5524 0
4819 1363 8646 0
-5938 6657 4906 0
4211 6818 -4661 0
-8543 -3397 3492 0
-8607 -3534 -6443 0
3477 -1558 -7755 0
-7822 3209 -9775 0
8608 6706 -7039 0
-9081 -4060 -5886 0
-2705 -3204 -8755 0
6342 -2923 850 0
-9359 7078 -8786 0
891 8145 -9775 0
-8829 -4100 8818 0
6662 -6575 7235 0
-1603 -1662 -728 0
-1768 -4867 3367 0
-9622 609 3976 0
3249 8810 -8393 0
6810 -4410 290 0
9002 -5857 -3179 0
7280 9442 -319 0
-1624 8651 -8571 0
4581 -1509 -9706 0
-9059 -9171 9243 0
-9649 -8370 -8989 0
-7912 2692 5134 0
-598 -4736 -5246 0
-2693 -616 -1375 0
6869 2373 -3118 0
-8810 9112 -265 0
408 9480 -9470 0
-2273 2729 7512 0
-3796 2087 3737 0
138 6595 -7933 0
-2495 4953 -911 0
23 3324 3297 0
663 -6950 -2265 0
-3131 -1170 7022 0
2926 755 5423 0
2304 -1595 -7520 0
-6707 -2540 -571 0
4200 5162 7700 0
-6345 528 -7036 0
2412 3997 2644 0
6047 -4881 2144 0
3108 -9207 6025 0
-763 -7016 5584 0
2031 -5664 -6805 0
9553 6882 -1230 0
-8948 4109 -8532 0
8980 6715 -1588 0
8127 -5197 6310 0
841 6547 -7972 0
-7249 1997 -3682 0
-5338 7939 5330 0
-493 -5363 2265 0
6092 -78 9673 0
-3727 -6293 1836 0
-1560 6940 8625 0
-548 7492 -4576 0
-396 -6734 -1264 0
8258 5979 553 0
8601 3653 7164 0
-2403 -3913 -2443 0
-9422 -222 -4602 0
-5450 6447 -3556 0
8711 4171 3635 0
-311 7231 -8400 0
-707 8511 7408 0
-6808 -1916 5479 0
-7202 4736 6262 0
3339 9196 -6895 0
-5762 6027 6506 0
4989 181 -2922 0
-1098 -9444 -4906 0
-460 7742 2966 0
-4172 6675 -6222 0
-7850 -2697 -5059 0
-924 8968 -158 0
818 1303 -148 0
7304 6217 -9224 0
-2882 9563 9462 0
-3864 -931 8490 0
-4101 -1151 -509 0
-1852 -1432 -3535 0
6091 5295 910 0
6407 -6800 -1872 0
7269 -1704 -3786 0
1075 8383 1103 0
-1656 2593 4603 0
-9197 -1695 -9680 0
-4070 -223 -2344 0
377 9965 -8869 0
-4626 -2190 2492 0
5450 1721 424 0
-2351 -6546 -9221 0
3127 6329 -7618 0
-1848 8404 3734 0
3341 150 1262 0
-5017 -9992 6155 0
-7671 -77 4900 0
2049 4182 -1632 0
-8056 2469 -2655 0
1371 -9227 -9067 0
-2805 9937 6227 0
-3059 2010 4154 0
397 -7320 -7006 0
8997 5743 8493 0
-8123 -2980 5508 0
-5917 9432 9280 0
-6951 8357 -2840 0
6706 4836 -9889 0
8545 2718 32 0
9485 9630 1677 0
9264 -9360 -7179 0
1160 -8454 6870 0
8591 -6686 1463 0
461 6633 6892 0
-5705 4568 6587 0
-7042 4104 -3310 0
-9593 9950 6266 0
2710 -7747 -5 0
7045 8994 6728 0
-5356 4300 -3300 0
6494 -3336 -1263 0
-7871 -1395 -2123 0
-1896 3560 -5000 0
9759 -6501 1507 0
1001 -541 -8315 0
-566 8311 6453 0
299 -4501 -4748 0
-5751 -1363 4985 0
-9160 3044 6914 0
-5209 2990 -789 0
-8952 -6393 9802 0
375 9935 -5062 0
-1314 -2308 4096 0
-5077 -608 -2563 0
-8674 1254 -7269 0
3254 9471 6734 0
3912 -334 -1083 0
13 -8688 8017 0
-2776 -6886 -5973 0
-615 6931 -942 0
8925 2867 3216 0
8731 -13 958 0
2475 4276 -2664 0
-6031 -9599 6373 0
-4010 8648 -4032 0
-2356 1031 306 0
876 7041 6201 0
4929 -9029 5867 0
-7915 979 3168 0
-820 3983 9631 0
-7493 -2825 -3896 0
-3217 2308 -9595 0
7455 -3976 9017 0
6825 608 3724 0
8797 2853 -9724 0
-9735 -7737 -7559 0
2254 8454 -3280 0
6331 -549 -1495 0
-4177 1222 2870 0
2120 -7661 3162 0
-8621 -6426 268 0
6674 -7333 -1131 0
-5992 2362 3439 0
-708 -9066 1034 0
-1355 182 4226 0
6400 -8146 5447 0
-820 1944 460 0
-768 -2844 -8904 0
3823 -4417 -5831 0
4171 6236 2164 0
8520 -3321 -4754 0
1231 -697 -9936 0
-6468 -5149 1938 0
-3541 6095 -4486 0
-717 2490 4611 0
-4306 4476 -7450 0
-5727 -2126 -8558 0
-425 -2758 -7501 0
-5305 -7562 43 0
2084 5620 6498 0
7927 -6924 8831 0
6023 -7798 6967 0
262 -1444 -6686 0
9830 9796 -2902 0
-7745 9003 -7655 0
-5667 -9666 4609 0
448 3869 9936 0
-4932 -8623 3651 0
4244 3612 9020 0
3344 1384 1420 0
-3737 -7281 5750 0
-8356 1848 -9756 0
-9468 4990 -193 0
8329 -9855 -1371 0
-4521 -3264 6008 0
-8187 4877 -7305 0
3133 -8270 5328 0
2023 -1487 8423 0
-9308 -5529 7763 0
-4660 -6517 -5939 0
-4681 9821 3281 0
-5738 -5223 2852 0
-3477 -8641 -1283 0
-7048 5997 332 0
5230 6621 5858 0
-2342 7755 8892 0
9661 -6022 -7562 0
-3283 -9429 3267 0
-1245 -2873 -8699 0
-5830 1169 3680 0
4606 -1309 36 0
-3619 -6077 5385 0
6123 -8484 8968 0
806 9368 -3846 0
7989 4827 2039 0
-7525 6054 6913 0
-1141 9990 -2040 0
3757 3781 -6851 0
578 5475 -467 0
2371 -1963 2334 0
-91 1432 -2421 0
-6059 8386 6996 0
5756 -8356 7986 0
4295 -4950 996 0
-7335 -7151 6610 0
5878 3498 -7688 0
6184 4189 -6431 0
-3370 496 6399 0
-2934 6423 -2476 0
-5890 -9650 -6481 0
321 9263 1910 0
-8657 -1063 38 0
-1236 7123 -4693 0
-1005 -31 3997 0
-6172 7486 4438 0
1069 441 9348 0
7831 6864 -7555 0
2935 7509 -2297 0
-6113 4231 6498 0
1373 2231 -8612 0
-1705 -5941 -7898 0
-3981 -2676 -2631 0
-5918 978 3597 0
-2368 -3842 -8901 0
8094 9065 3856 0
9106 314 1643 0
4389 5432 3606 0
9205 -3129 -9530 0
572 5351 2774 0
-4443 4628 3565 0
9610 -4235 7384 0
-5867 369 -3650 0
-470 -879 -2703 0
3469 -8121 -3371 0
6674 5254 3087 0
-5611 -1629 -8460 0
-9784 1097 707 0
2071 3559 9763 0
-3508 -4461 6579 0
9640 1820 9658 0
3200 -2686 8899 0
3299 5191 -7924 0
-78 -8015 987 0
4827 9790 -7874 0
-2053 7315 -7411 0
-3742 1541 -9621 0
2092 -6182 9903 0
-1187 -681 5537 0
8319 -88 -6114 0
-6892 -6051 -7144 0
-1692 -4465 -7926 0
-9710 4168 8602 0
8776 -6052 -6894 0
-6390 4915 201 0
-1281 7204 -4110 0
7418 -4941 1791 0
5539 -9809 -8389 0
-7870 8094 -6324 0
-759 4091 1995 0
-5239 -509 8752 0
-4919 -9868 1250 0
5097 -5625 -8209 0
-6566 -5739 1774 0
-9708 8853 -8358 0
8481 -3539 4151 0
-3930 3561 5763 0
4554 358 -841 0
1233 3516 4846 0
2874 9640 -6863 0
-2260 735 4041 0
4741 830 3624 0
9943 -5161 -230 0
-5214 8209 4007 0
5862 1160 7032 0
6914 -9735 4197 0
9754 -2100 -4458 0
-4588 7215 -6063 0
-4659 -7723 6211 0
1398 869 -1697 0
-415 -1488 6661 0
-8585 -4911 8700 0
-9735 9081 8446 0
-3 -6501 -7419 0
1155 -3099 8169 0
2812 9328 8458 0
-6973 -5908 -1997 0
-5159 2101 8528 0
2654 -8908 5265 0
5734 -1970 -1258 0
-762 8432 -719 0
-9025 -2008 -4104 0
-7735 -8933 -4379 0
-7554 4295 2703 0
-6114 6652 -4581 0
-6376 -7864 -5180 0
8015 5576 -7286 0
-2874 -8529 -2467 0
9437 7054 -7235 0
-4906 -3221 4844 0
3205 5127 -3098 0
1609 2900 703 0
2510 1079 -6451 0
1943 -1156 5898 0
-9393 -6248 8604 0
-325 6781 -1617 0
-5916 -8397 -1973 0
-666 -2330 1065 0
5329 9911 8865 0
2566 -6027 -5922 0
7142 977 -5276 0
-8478 9427 5511 0
6339 7412 5477 0
-9197 218 1118 0
-4669 4301 392 0
-3311 6006 -8016 0
1835 -2671 1461 0
-1391 8019 6510 0
-2288 1638 -3018 0
-3538 9911 2046 0
-667 2837 5117 0
4105 4884 -6740 0
-36 -7024 -4293 0
-4561 -4230 6889 0
-1931 -6377 9969 0
-8333 1396 7193 0
9209 -2788 -8929 0
8058 -3457 -3391 0
-9355 -2207 -2799 0
6510 -4379 -6482 0
-3008 6968 4209 0
-5716 -3681 8800 0
3233 871 -2503 0
9472 8048 -6354 0
-9383 3340 2331 0
494 -8167 6289 0
1069 -9554 -3529 0
-8137 -5978 5230 0
-4596 1473 4128 0
-9977 -7628 -2915 0
-1829 9211 -9391 0
-9538 1517 -3370 0
2215 8530 -7509 0
-7355 1277 -4353 0
1742 -2472 -2729 0
-1245 5891 3250 0
-1149 7171 -4877 0
-4906 3070 -9510 0
3527 -5844 -9702 0
-7035 3722 -4368 0
908 -4241 9900 0
1724 -1573 -6427 0
-5314 9958 -2290 0
-1477 7206 -4194 0
-5364 -9425 2478 0
2340 5072 -6690 0
-2553 3606 7900 0
-8185 -8492 -8337 0
-7936 5220 -5295 0
-6284 1576 2048 0
-5044 9821 -1228 0
-6359 -2902 4768 0
7342 -4678 1745 0
4844 -3126 1018 0
-8037 -9693 -6371 0
4926 -6845 -4433 0
-2880 -5966 6478 0
-5610 -2770 2805 0
-8558 -4761 -3570 0
-5792 4519 -2791 0
-1819 4935 8289 0
-2980 -499 2135 0
-3049 7415 8600 0
-7286 -1980 3333 0
-6370 5564 -2569 0
5644 -8363 -3785 0
-5978 1216 3442 0
-4138 4079 2917 0
-1845 2396 8651 0
5800 18 8961 0
-2296 -7316 1385 0
3546 9902 9394 0
4617 4513 -26 0
-3973 962 43 0
4592 -309 -9379 0
5746 2745 -818 0
-1507 2521 -2914 0
9240 -4336 7576 0
-9052 8196 9460 0
-2837 -715 -4741 0
-1674 3465 -1669 0
1640 2850 9970 0
3890 2163 -9235 0
-1322 6582 8373 0
-5752 1360 -39 0
-469 -1003 -5317 0
-1848 -859 7092 0
-2222 -3198 -4705 0
-6557 -9077 2571 0
6009 4251 -1812 0
9310 3480 -8009 0
-9013 5078 280 0
-2122 -6235 8402 0
-751 -6986 -7889 0
-2252 4643 -4437 0
-6892 -1136 -9091 0
-3472 -8697 -1482 0
-8654 7808 8804 0
893 -653 -7194 0
-7306 5293 2029 0
8356 597 6061 0
-3782 1537 -162 0
-783 -1925 1383 0
-8991 1793 9781 0
5531 -4253 -8427 0
4034 7572 9944 0
4460 -2031 8232 0
-5943 -8782 -6077 0
6880 6891 1706 0
6607 -590 -5150 0
4930 3978 -6749 0
7033 -9116 7259 0
-4044 -6052 8581 0
-7999 2210 1983 0
-7887 9672 -5906 0
6503 -8461 -8081 0
2901 -4745 -8824 0
-6414 3915 -5955 0
-2753 4950 -2655 0
-3554 5593 4632 0
7184 2684 9463 0
-1487 7614 6461 0
2410 4235 -3606 0
7585 203 -5903 0
-6285 1667 -2471 0
1266 -1844 -7969 0
-3876 -7264 -2384 0
-9418 -8481 -9470 0
-1373 6357 -4575 0
-1857 -1898 -6334 0
3095 980 8075 0
8387 3892 -2270 0
110 2476 3580 0
-7734 7927 2320 0
5750 957 744 0
-7163 7479 -7493 0
838 -9645 -5830 0
8965 932 5182 0
-275 -2406 -2191 0
-5850 -174 -6583 0
-1426 -745 -1048 0
9770 -70 854 0
324 -4007 2751 0
95 -2314 -4204 0
-3816 -1071 -1021 0
9046 -508 -6274 0
-5513 2352 -7830 0
4046 9651 -6135 0
5120 7922 -9727 0
3484 4531 3069 0
-4396 531 7753 0
-3861 5091 2898 0
-7853 -3375 5358 0
-8810 -6331 5704 0
-4683 -2408 7170 0
3640 -4719 4683 0
6394 5228 9430 0
-6110 6359 5989 0
9170 8931 -1415 0
9088 -6964 -6491 0
2858 4314 -5537 0
-72 3368 901 0
-2205 -122 9334 0
3753 4956 5078 0
-3781 -5111 9957 0
-694 -8147 -6174 0
1797 7621 -5114 0
-7440 1812 -5295 0
5199 5715 -1812 0
-4658 -31 6429 0
3451 -491 -3491 0
-7267 2733 -7707 0
-9351 -8171 2571 0
-6649 9616 8293 0
9989 3507 2188 0
7765 -8791 2544 0
7353 -1840 2659 0
-9540 -2566 3987 0
-9518 -6622 -3495 0
-9782 -9486 3448 0
-4374 -7273 1065 0
7988 2956 8607 0
2123 -5568 9616 0
-329 -4462 1679 0
-8529 -206 6280 0
11 -3522 7343 0
579 -2478 -5329 0
6838 -1551 1685 0
8566 7585 6431 0
3969 6876 4831 0
5046 492 -2709 0
-3488 -7340 5684 0
4674 -4966 9988 0
-4920 2422 -704 0
-5922 -3823 241 0
9530 -6263 8385 0
772 -5261 -5406 0
712 -8965 -95 0
-4072 -9516 2714 0
2441 -7258 1609 0
-4011 5264 -7104 0
-1549 3379 7820 0
-6764 -5433 -7118 0
-105 -6786 -3846 0
5789 6620 -3697 0
7178 9456 1672 0
-3784 -4930 -3183 0
-7482 3223 -3670 0
3605 1484 3690 0
-3196 9650 7651 0
-4924 -319 -7266 0
-8980 8953 8109 0
6512 4372 607 0
5238 8080 8290 0
9492 1771 -5295 0
341 -4980 9651 0
7104 1109 -9432 0
-3500 1418 6594 0
6683 -7277 -3857 0
-7620 3585 -770 0
1477 -1146 -4834 0
-1245 6509 -6945 0
5574 5329 6623 0
-8608 9885 4198 0
9653 -8346 -9962 0
-6741 5434 -3376 0
3293 -7777 4664 0
-4315 -9500 -2602 0
-7573 937 7733 0
8661 -2954 8155 0
9865 -2293 -8235 0
-7284 -9044 5866 0
7197 -9576 -5533 0
8070 2682 -1354 0
9772 8751 -8711 0
-8390 -2292 -881 0
-147 4570 7422 0
2820 1419 320 0
2177 -6991 5038 0
-104 -1802 1076 0
162 -991 -6018 0
9672 -6350 2031 0
1481 -8131 -493 0
9572 -5875 1524 0
79 2987 -7398 0
-7958 -8592 6133 0
-8042 -3855 -6111 0
-9831 -6366 -719 0
2677 3664 -1227 0
8934 -6862 985 0
-1797 8599 -8945 0
-6329 -532 8220 0
1657 -7907 6185 0
3174 6777 -3253 0
-8315 6670 -5478 0
-316 -2454 -6589 0
5383 8910 898 0
2053 2887 -4939 0
4555 -1042 -3786 0
-8797 -250 9923 0
-1859 3253 4845 0
-3117 3272 -6117 0
-2726 -2864 794 0
-1375 -5020 9893 0
-8588 2150 -8635 0
-9380 6704 4370 0
-1089 9069 4592 0
-4472 -4248 7375 0
4261 2268 -1264 0
-1570 4945 9326 0
-2875 -5976 5769 0
1129 -5175 -4937 0
-1384 -4121 -2106 0
4988 5561 -806 0
-2391 8563 1204 0
5419 462 -814 0
-6062 7469 5257 0
-5150 1155 -7541 0
1307 -785 379 0
-4280 -8472 -3269 0
1114 5293 1699 0
-6043 -1399 -2117 0
-2392 7640 -2350 0
2588 6869 5043 0
9630 4748 4327 0
-5678 2676 1061 0
7905 291 312 0
5643 1147 -4556 0
-1435 -4214 -3125 0
3850 177 -3747 0
7530 6817 -2854 0
-311 7491 -6710 0
6953 -2586 4304 0
6088 -6885 -8960 0
4918 5106 -9553 0
-8852 -2740 -83 0
-9123 -673 -7980 0
9414 4534 -1061 0
3784 6369 383 0
3055 -7090 6874 0
3478 -3427 99 0
1781 -5227 -2067 0
-8752 5240 9690 0
-6431 2388 -198 0
-7907 -1344 8347 0
6708 -6996 3314 0
-8156 -8427 -5380 0
2058 -1169 6732 0
-1808 4077 -2080 0
-9685 2095 -5128 0
8121 -3769 192 0
461 -2353 3185 0
6503 4505 -6636 0
3125 -173 4614 0
378 6054 -3393 0
1881 940 -9272 0
-4487 -3572 -661 0
6142 -6596 -6082 0
4135 -459 9186 0
-4957 -738 -7056 0
2204 -3754 -8903 0
-4111 2620 -2226 0
2735 -8947 -5461 0
5851 9880 4949 0
-8270 7798 5052 0
5392 1977 -9917 0
6097 2620 9146 0
-4716 8233 -3150 0
-4801 -1108 -1366 0
4027 -9660 -3487 0
8574 -3449 -2714 0
-1792 4995 7952 0
3177 -415 1802 0
-7992 -2128 2107 0
-9088 658 -24 0
-248 -1274 2030 0
2346 -1892 -9530 0
3964 -684 -4831 0
-5162 -9237 9345 0
-3171 -7438 -678 0
-5967 -1629 2581 0
-681 -122 9494 0
2172 -7840 -8072 0
5290 -1533 -4136 0
7493 -8805 -3000 0
-6286 7011 -563 0
7990 -7271 189 0
5446 -404 5383 0
2376 7775 7897 0
-7207 1379 6338 0
-4869 8702 6407 0
3437 7552 8817 0
1972 374 5910 0
-1465 -127 6711 0
-6083 -9100 -1162 0
-6497 -3474 -2451 0
7067 9828 8706 0
5845 5382 -5392 0
-2259 -7304 -5105 0
-862 2448 6627 0
2761 9354 4219 0
-3258 -8847 7311 0
3218 1747 -4120 0
5553 6696 4548 0
669 -9180 -3966 0
-1614 6851 -4645 0
-9058 6034 -8872 0
2117 8448 7655 0
-7282 5737 5108 0
-626 8410 6245 0
-52 -8878 2714 0
7978 3687 -1843 0
3769 -5761 5443 0
7875 3246 -884 0
-9087 1902 -5253 0
9646 8089 -441 0
6053 5009 -8753 0
4604 8378 -998 0
-7845 -6609 -567 0
5152 6683 8457 0
4645 -1441 -1448 0
9511 -3585 -8559 0
2748 -7865 1568 0
-4281 -180 5146 0
8020 5996 8281 0
3051 -1897 -9788 0
2591 -8925 -9862 0
2820 8880 -4421 0
7875 4614 -9616 0
6058 87 -5017 0
-6166 7538 -4622 0
1731 -8623 7675 0
4373 1485 -3730 0
-7245 -23 8811 0
784 7815 1103 0
-6271 -9225 -2772 0
151 4784 6500 0
1439 8985 6887 0
2693 -8751 -2616 0
4799 -1467 -4115 0
-4131 923 2312 0
-9292 -2857 -1045 0
-6192 -3109 6832 0
-2037 4382 -9736 0
-6823 2014 -1148 0
-88 -3221 7918 0
-9188 -8313 -2967 0
7128 9309 510 0
-3040 7737 6914 0
-2602 -2597 -8055 0
-9855 -6181 -7472 0
9537 1394 6489 0
-9052 -440 -1194 0
-3413 8220 -282 0
7015 2312 3943 0
-3430 676 -4411 0
-8280 7316 596 0
1959 -9401 7419 0
-7134 -3791 -6044 0
-8907 -8345 -4788 0
-6716 -477 -4592 0
-5398 239 6145 0
-8374 -6519 -5863 0
-4343 6411 8363 0
7156 5494 6842 0
-9479 -6357 4252 0
36 7633 5005 0
-3004 -3981 -4399 0
-6300 9234 4806 0
-5198 3785 -4149 0
-9538 -9491 2339 0
-5009 -6609 -1456 0
588 7998 8717 0
-9250 9949 -7701 0
-8075 4402 1859 0
-2132 2342 -5332 0
9876 -5262 6031 0
-1498 9755 -7245 0
9575 -8415 2957 0
-1094 5833 -8600 0
-9562 8948 -9321 0
3039 157 -9765 0
30 3881 5982 0
-5088 -6419 3160 0
-3900 3990 -3400 0
-6712 -5039 8632 0
-3068 1067 7198 0
2904 -9849 -3214 0
-5491 1100 -2148 0
4358 1587 5228 0
-8910 -170 1158 0
-6455 6749 -7762 0
6307 6553 -9463 0
-9414 8307 -6671 0
-5764 9376 5667 0
-1212 5938 -4831 0
-9994 -4451 2826 0
-8389 -1373 -4107 0
2605 4421 2451 0
-3801 4075 -4679 0
2183 1579 -7696 0
-6258 -7833 2188 0
3234 3226 -8160 0
9572 -5590 5190 0
7092 4406 -9254 0
-7741 9088 7255 0
9732 9796 -7096 0
-361 -531 -3396 0
-3890 -4578 2044 0
-5682 4631 4842 0
-3915 -9083 862 0
8416 -6179 5018 0
7727 1419 7244 0
1109 -288 9172 0
-2872 -6042 -3285 0
2936 -4536 4130 0
5204 -5293 -9352 0
226 2875 -6330 0
-6598 -4511 -6462 0
-5190 -7062 1413 0
6012 -5125 -6560 0
7668 -6184 -8112 0
9293 7820 9882 0
-2359 9177 4217 0
3763 -1304 -9139 0
-1432 -7082 -6848 0
144 1159 5887 0
1472 1511 -4816 0
-5634 -6295 -1204 0
9306 -6324 -7433 0
6615 9301 -5081 0
-1074 -3724 3589 0
3419 1657 1510 0
11 -2053 -2096 0
-9744 6432 779 0
-7046 4227 -4213 0
-4469 -2331 7337 0
-9194 -5406 4263 0
4759 8492 -5232 0
8760 4714 -3399 0
3247 -959 6991 0
4415 2603 3278 0
-6756 -197 -5951 0
5968 1965 1939 0
2760 6569 9755 0
-2255 1434 9205 0
-9340 64 -5480 0
-9141 956 8411 0
-4362 -4201 -5195 0
5267 3397 8683 0
-2285 1437 6387 0
-4415 558 -28 0
-7854 -165 5783 0
-8583 5095 1359 0
-7664 -4361 -2512 0
-2206 4205 4126 0
-8704 3565 -2821 0
3673 -6123 6859 0
1965 3282 -774 0
-3209 6455 -187 0
3395 9260 -2695 0
-3733 -2211 1029 0
-4562 -4411 -5419 0
7427 -7515 -8179 0
6244 3862 -2955 0
2092 -3215 7855 0
-8948 -53 961 0
-1879 4218 19 0
-6113 1677 -1098 0
2338 4083 1912 0
9553 1515 -2755 0
-510 4275 4266 0
-9968 -1424 -3794 0
-2756 3669 5994 0
-2802 3376 -3815 0
-7030 -3262 -7461 0
8912 -7148 -9019 0
-2971 -7948 -4299 0
-1957 -5555 -9923 0
4528 -2482 1971 0
-5747 -7514 -8788 0
5365 -4735 -5078 0
1998 4947 774 0
4606 6636 -7097 0
7135 5574 -6119 0
3271 -8829 -632 0
4190 4116 9107 0
-221 -4105 -149 0
5912 -2039 -3913 0
8825 -5181 -6464 0
291 2620 3090 0
2099 -5697 -4897 0
5448 4031 3378 0
2064 7399 -4781 0
-9141 -5945 5969 0
-6362 6363 -5926 0
6600 -2103 1671 0
-5075 -345 9373 0
-952 7965 2175 0
-5524 -5441 4760 0
-7670 -2616 6691 0
-8029 3057 9917 0
-4953 -1848 -2149 0
6630 -6103 4634 0
-9173 -7334 -6596 0
-8321 8565 4196 0
-619 9230 -1252 0
5284 6936 5858 0
3684 -9324 4591 0
8940 6780 -4746 0
-8054 6153 -3146 0
-8524 -6596 -4226 0
3235 -2794 -3228 0
-7670 -9182 808 0
6813 5863 8029 0
-2725 -5710 -7559 0
39 -9824 -9372 0
-7592 -2837 -3615 0
4422 4015 3066 0
9759 1087 -688 0
2569 -9820 -5870 0
-2353 -8104 -1296 0
-8872 -8286 2896 0
8558 -1275 2504 0
-6646 -7082 5743 0
8441 9654 -7021 0
2445 23 4884 0
-6942 3203 -4138 0
-6096 -6399 -7362 0
-7300 9115 -6782 0
6797 -2371 7039 0
-6843 714 -8266 0
7630 1520 1648 0
-3176 -4845 -2018 0
8856 9988 -7037 0
5478 9594 -1739 0
-9321 -659 106 0
-8198 3949 -8859 0
-5344 -6082 -2087 0
-5705 9517 7505 0
236 5808 7081 0
-4033 7949 4500 0
6749 -3418 2624 0
7199 4689 -4180 0
8810 -3287 5636 0
-8767 1432 -4893 0
9422 -5563 -1853 0
-6462 -2493 2824 0
6817 6341 -4180 0
9883 4487 2496 0
-7324 -761 -7631 0
7830 8473 -4892 0
-9586 8663 8304 0
-3223 -4516 6052 0
7068 -9887 -4085 0
442 -4383 -8574 0
-9229 7614 -3099 0
4250 -2078 8187 0
9316 6259 2695 0
-3492 6078 7563 0
-2485 -9405 -8313 0
7694 -4066 5419 0
-9938 8568 1294 0
4565 2160 -6868 0
-9745 -5082 407 0
5785 -358 -5022 0
6932 52 -7177 0
8636 -8939 -1150 0
5542 -958 -4205 0
-554 6678 -1115 0
-1742 8294 1081 0
-2129 4366 -2728 0
9914 5497 9323 0
1364 -5557 3826 0
-2301 -9588 -2849 0
-9130 -3720 1334 0
1935 3429 9612 0
-5174 -9352 5905 0
-2268 1489 -6041 0
5647 -6244 7735 0
-7051 5730 5603 0
-7953 -6928 -426 0
2826 9406 9179 0
-4800 -9751 -1004 0
4179 -5832 -4471 0
539 -2852 1361 0
608 -4699 -9689 0
6333 -3805 -6378 0
-2184 -2138 -4710 0
-1578 -8173 -1730 0
-2629 -8778 -1499 0
8629 2538 683 0
-6040 1848 7592 0
3510 4695 -9033 0
-2591 -4617 179 0
-7764 2835 1926 0
-8306 788 4283 0
-7661 4148 7940 0
-3275 64 1706 0
-1935 -9419 -9511 0
2724 -1094 8052 0
-4486 4327 -3083 0
3911 5202 7496 0
3564 -8565 6860 0
565 -1500 -8256 0
-3328 36 1686 0
5466 9939 -7897 0
1233 -4654 -8099 0
-245 -655 -9338 0
1553 3075 5145 0
7860 4382 9962 0
3822 4196 6789 0
7735 -2460 1930 0
-4741 7028 6509 0
8048 -6751 6919 0
8387 8646 3164 0
4570 5523 -6564 0
1408 8034 -8227 0
-6176 8595 1719 0
8354 -8516 4559 0
-506 -7070 -9250 0
-1135 -338 -5743 0
-165 4091 -1251 0
-7957 1462 3097 0
4053 -1445 7821 0
113 -997 -2290 0
-782 1798 2573 0
961 -1535 -4444 0
-4313 7776 -3450 0
560 -2862 5319 0
-8179 -9168 1986 0
9276 -1426 61 0
-5706 4010 -9279 0
-7523 5016 484 0
-7141 -5754 4402 0
-9360 -1802 5075 0
-2674 -8221 7211 0
1278 -7615 -9839 0
-9681 -5617 2272 0
-4597 -6801 8171 0
-2618 8591 -5084 0
844 5930 -6884 0
7938 2762 1023 0
4741 -3479 -6240 0
-6175 -5449 5175 0
3594 -7109 5926 0
-5444 8406 -9710 0
-3123 -5869 -9719 0
6180 8527 -2542 0
2944 8991 1691 0
2696 -4759 -3137 0
-8385 6471 5010 0
645 -4987 -9047 0
-4367 7990 613 0
-857 -448 -3357 0
-1725 6939 -1239 0
5793 1226 3566 0
9 9939 5851 0
-4207 2447 5575 0
-4623 -3354 -7466 0
2138 -7409 -3743 0
-4701 -9551 4309 0
8755 -4643 8945 0
-3107 -2476 -5935 0
3121 3110 4485 0
5829 -9060 -3871 0
9089 -4295 5377 0
8916 -7093 5674 0
-1515 87 5441 0
-3079 2543 7055 0
-9787 1562 -9675 0
4442 6846 -7374 0
-6374 -5947 541 0
3422 4076 433 0
7567 10000 -9052 0
5160 3224 -4486 0
8884 7393 6869 0
-5377 5161 6627 0
8869 4055 -4701 0
-7950 -2753 -655 0
-4338 -8680 7135 0
8488 -4473 -6159 0
-9813 -6915 5808 0
-4935 5145 -3076 0
-3454 -9032 -7590 0
-2774 -6681 -5547 0
-4315 -3875 -1532 0
628 -9950 -7979 0
-5856 -2054 -6127 0
7046 -2510 -1019 0
2846 231 -8245 0
-4276 3484 -7523 0
-8216 -92 7556 0
-9355 4918 -3903 0
-3421 -3893 9210 0
6224 -2793 6401 0
-8337 9986 2993 0
3896 -5479 -577 0
-8656 4387 4800 0
2913 -261 6403 0
2770 -5812 -8522 0
-1738 9261 -5475 0
2616 -9069 1220 0
4302 -4217 8409 0
-1444 -8782 -472 0
-2330 -3728 -5740 0
-6600 -741 -6423 0
-8865 -291 -6079 0
8571 -5000 8131 0
1584 -5667 -5441 0
-6821 -9535 5819 0
-7437 361 20 0
-7130 6467 786 0
-5957 7830 -9823 0
7839 7538 -5647 0
-2677 -3186 2082 0
7410 1507 -4239 0
-6188 -4555 -4493 0
5863 -9170 6308 0
-2803 9831 2649 0
-4542 -1932 5965 0
-7043 -9635 -9624 0
-3756 1557 3273 0
-9285 2859 -4351 0
-9538 -3994 8299 0
-2970 5239 9117 0
9087 1883 -4439 0
4985 3512 -6348 0
5579 7340 3475 0
-8510 -8586 396 0
-3188 -8526 6788 0
-200 9256 -2686 0
2767 -996 4337 0
-7860 -4294 5342 0
4463 8791 8359 0
-4083 444 -8008 0
3149 3793 9400 0
3646 2435 9413 0
7836 6315 1187 0
1048 -7045 9282 0
-5758 -2346 -6077 0
-9739 1902 -2054 0
-9077 -9216 2536 0
7318 2655 -4001 0
3788 93 202 0
-8655 -5081 -248 0
-8490 2362 5126 0
-6046 4629 -1450 0
-8464 -4997 -8376 0
-3539 3934 3913 0
-3765 -4981 -6839 0
-7507 -2092 2632 0
3216 9811 -462 0
-8142 -3878 -8426 0
2107 2779 6540 0
5945 7475 1580 0
-9136 -1320 -7243 0
-242 7313 -1810 0
-7691 6217 -7060 0
5157 201 721 0
899 422 6187 0
-7667 -2918 342 0
-3471 8069 1646 0
-8524 6818 -1301 0
-5829 3249 -9968 0
-587 2036 7415 0
9240 -5061 1356 0
-6533 -3644 -1340 0
-3785 5093 2680 0
-1607 6271 6660 0
2480 -9024 2070 0
3683 9210 3627 0
-6741 -4623 -5980 0
8430 -6096 3410 0
9752 -90 -3002 0
1949 -6810 -2999 0
2996 4593 -6558 0
-7410 5201 4495 0
-5161 8850 -3420 0
-8144 -1201 -1520 0
4646 -5301 -8278 0
-8645 -3149 -3569 0
-6416 6081 7286 0
4969 3445 4036 0
-2561 -3845 9820 0
-8000 -2863 -3358 0
8575 -5754 2250 0
-65 8226 -7198 0
2081 -7429 -7378 0
6050 -5943 -4820 0
2490 1024 1137 0
3064 9719 -1611 0
4740 6159 2034 0
9657 -278 2207 0
-7741 -6506 2719 0
7957 6732 6292 0
-5956 -6090 -3497 0
329 9272 839 0
4312 8922 7168 0
-8606 -1407 -6052 0
-9415 -4858 3823 0
2847 -477 6864 0
-5418 -6462 2284 0
9954 6966 -9002 0
4601 8586 8861 0
65 4910 1346 0
5430 8580 -4466 0
3889 -164 341 0
-7782 -3011 3576 0
-8953 150 -7217 0
-6621 -6479 -883 0
-3388 7570 819 0
-454 -1632 -5624 0
8500 3145 -7860 0
6733 -6616 -8867 0
572 -9759 -6454 0
-680 7278 -6365 0
8977 979 -8383 0
694 -2833 -2661 0
-6495 954 -1088 0
-687 6109 3291 0
-3818 -9069 4758 0
2854 3679 -2129 0
-2062 7926 3717 0
-5355 7617 -1751 0
-7902 1794 6702 0
8130 7882 -9584 0
7165 1652 84 0
-933 1543 -3659 0
9950 -1634 9226 0
1274 -4374 -6667 0
8161 -8876 -8218 0
-760 615 -5579 0
-1136 -7233 -4459 0
-9860 569 -5061 0
6652 -374 7448 0
9498 7347 -4049 0
-6946 9901 6768 0
6937 2248 8147 0
3533 9157 2994 0
8668 3002 -9115 0
6703 -7786 -240 0
-9741 -4588 -3390 0
-7355 -6796 9184 0
-472 2725 2866 0
4255 -1095 -1475 0
6845 6950 5265 0
-7032 6765 549 0
-4987 -3749 7850 0
486 -2431 -8898 0
-228 1773 -9227 0
-7577 -1642 -9566 0
5701 -7999 5448 0
6702 -3583 -3554 0
-4112 2827 -7175 0
-622 1700 -5399 0
9225 -5081 -8214 0
-9545 496 -4523 0
4601 -2311 -8030 0
5753 -5645 -6859 0
-3081 -2131 -171 0
-7291 4397 -5495 0
-881 -2830 -3938 0
2527 2065 3574 0
5066 5144 -9645 0
5103 -5808 1024 0
-2003 -348 3789 0
285 8412 -4295 0
457 -955 3611 0
-1550 -2227 3335 0
-5593 6122 -2886 0
8304 -2667 3043 0
1442 2941 3408 0
-537 6301 7795 0
-8768 -8999 -2065 0
4035 9310 -3645 0
-8154 1269 -3322 0
2338 -7925 -4622 0
4533 4912 -6534 0
-3822 6704 487 0
9883 4951 7784 0
9210 -9651 4333 0
-5293 -1623 1264 0
-7905 9728 2564 0
-6094 3177 1214 0
-4703 -8710 2537 0
-3200 -3356 -9607 0
-3971 9634 -5230 0
-3897 -8817 -5352 0
-4951 -675 4973 0
-3658 -1547 353 0
-6661 4561 -3756 0
-7656 -3581 8154 0
-8058 1897 7693 0
-8065 -5024 -1383 0
425 7047 2734 0
7395 -6547 -5493 0
-1701 8688 -4754 0
292 7552 9521 0
432 -2240 -9251 0
9777 -1665 -9729 0
-5971 -2965 -8460 0
5245 -6674 7921 0
5047 -2412 5661 0
-5546 8720 -4098 0
4810 9677 3681 0
431 -4018 2756 0
-6747 2639 -3251 0
5822 8212 421 0
8391 7152 -3384 0
-1418 6888 7017 0
-7267 -2236 -4261 0
33 1137 -7673 0
2501 -7736 -2394 0
3014 -9078 -8458 0
-8377 -659 3164 0
917 7510 -6146 0
3807 2085 6302 0
-7072 6254 6159 0
-3429 3519 2038 0
4884 1201 -895 0
7159 4622 6465 0
-2803 7551 3262 0
6800 -4334 -8861 0
-9982 -3590 -9182 0
-8198 304 -5884 0
-2695 -8655 4942 0
7540 8681 1143 0
-2116 -989 -9647 0
985 6181 -5604 0
3454 3341 -4237 0
1898 4631 3382 0
-8534 -8623 1095 0
6362 5540 -909 0
-7515 -972 -7900 0
2134 -1802 1582 0
2219 -4008 2792 0
-3013 -5918 -1490 0
-2426 -9887 7559 0
5471 3521 -6140 0
-5556 586 9740 0
-9642 -1413 5013 0
-2264 3246 -3910 0
2603 1927 1870 0
6410 5848 2117 0
8348 -8933 3011 0
5614 2093 -5406 0
9162 8389 1055 0
5831 -9929 -5390 0
2786 -9362 -3991 0
-7325 -6341 -1944 0
9310 5042 7143 0
-1451 -2366 -6604 0
-7554 872 6814 0
7309 -7107 4866 0
1165 -4231 -3228 0
1025 -1795 -9324 0
6009 4481 2640 0
2453 6576 791 0
-3452 5542 -5211 0
632 6253 6585 0
3666 9364 2262 0
2886 -3534 -2113 0
-4632 -4553 8444 0
5331 3744 1018 0
-9368 3223 -3848 0
-5084 -3620 4727 0
8133 -2885 8832 0
5960 9613 5995 0
-7477 5335 5974 0
6027 -3578 -5715 0
1452 -6322 156 0
6982 2615 8067 0
1488 -5440 3996 0
-7048 2714 6248 0
4632 3625 9361 0
9295 -9405 6508 0
-5448 -8430 -4755 0
-3751 -8464 7358 0
1869 613 -2323 0
-2259 -5135 -5688 0
-9868 -3484 4951 0
-9715 -3882 -3313 0
5765 6648 -4488 0
-1687 -7066 -3003 0
6827 -777 270 0
-2743 -5545 -9640 0
6175 -2354 -9598 0
7550 -5154 9279 0
2876 4961 -9092 0
-6448 -4324 5352 0
-7081 2422 -7477 0
7685 9494 4076 0
4928 4445 -3654 0
8887 6767 9455 0
-9806 -1337 -4261 0
-5478 -6470 -9086 0
4587 -4668 -1023 0
-2633 1413 6211 0
-6209 -840 4820 0
-9127 -8469 5688 0
4251 9894 -528 0
-2278 -2293 8723 0
-6718 -3804 -2309 0
4435 -5542 534 0
-6676 -6995 9036 0
5014 4569 1542 0
9881 1740 -922 0
-333 912 7474 0
-4815 -5635 -2952 0
-7586 2521 -3516 0
1817 -9478 484 0
-1507 -1844 -4844 0
2363 -4324 -9855 0
-5909 7496 -7429 0
-4224 2548 6720 0
-6847 -3868 -3977 0
7836 6188 -1348 0
-7237 -3558 -93 0
9708 -1953 -2600 0
4972 942 25 0
-7267 4337 -9567 0
-4117 2202 2543 0
-758 -3275 -8807 0
8168 1673 8289 0
-6823 -9925 -4291 0
1262 5718 4874 0
6639 9802 -9853 0
6382 -2159 173 0
7707 -8627 -18 0
-9881 8213 3044 0
2987 2552 1196 0
8918 6900 3799 0
9887 8542 538 0
8520 -6013 -6957 0
-1286 9311 -7908 0
-4923 -8667 2682 0
-9206 9694 3137 0
-9283 -5456 -1077 0
-4324 -2261 -7514 0
-3399 7685 7739 0
8859 -5375 -1117 0
-5571 -7834 8265 0
2721 6714 -110 0
5815 -7788 9436 0
-618 -3958 -6830 0
-1709 123 -135 0
9073 487 7974 0
-4441 -541 -5498 0
101 -4931 9489 0
-7695 -6003 1016 0
9780 -6556 -313 0
2964 -1767 -7590 0
7491 -7011 9554 0
7782 5304 -7651 0
4194 -8157 4544 0
416 -1244 364 0
-4881 -5449 9075 0
-1488 5481 -1776 0
6672 -1679 -113 0
4491 3955 -2341 0
-9151 6153 -4374 0
-8960 -5750 612 0
8734 -8181 2732 0
7375 2141 -5733 0
2863 -2082 5406 0
5743 -4432 7583 0
2632 -9633 -2083 0
4499 -3811 899 0
-5786 522 3342 0
8164 9538 3686 0
-6183 5223 9290 0
-4127 3093 -6159 0
409 -1378 4960 0
9862 6921 -3721 0
5775 2555 7266 0
-4200 5822 -9348 0
7611 -2375 6081 0
-1273 3693 521 0
3031 -6386 7422 0
-2486 -4616 -6333 0
-859 3714 6376 0
2304 2773 8296 0
-7671 -9669 -222 0
-2742 -1833 1199 0
-2997 -5971 -4570 0
-5987 6305 -215 0
-6645 7487 5572 0
5687 8092 -6676 0
789 2970 -2547 0
2373 6971 3030 0
2090 -7149 2820 0
-8142 -1831 8998 0
-3546 -1751 9101 0
3400 7553 -3800 0
8679 4003 -8318 0
-2993 -6746 2522 0
-4668 3147 -6741 0
-1156 1939 -4682 0
-7591 -2588 6156 0
3765 8487 7339 0
699 5548 3219 0
7315 -2733 -3222 0
9845 -277 4736 0
-1833 1828 9205 0
9320 2802 895 0
-6483 -8518 -8354 0
5860 -7329 8849 0
8144 -4150 -5932 0
-6497 -6297 -5018 0
7505 -9327 529 0
-7954 1465 -4823 0
9304 1476 9955 0
8295 1870 7368 0
-2477 6420 7498 0
790 2398 5589 0
8105 -1014 -3199 0
-5500 1238 1071 0
-1859 -1568 -2957 0
6466 -9496 -3350 0
-7223 -336 763 0
-3672 9903 -6262 0
6526 -8335 3320 0
-7187 4619 -7919 0
2836 2770 -6684 0
-8775 7464 4286 0
7484 5688 -6219 0
-436 2911 -9602 0
3794 2412 129 0
3223 4077 2144 0
5734 -1303 5669 0
107 7005 2279 0
-9916 -9936 -9266 0
9439 -2478 -4662 0
-4080 2302 -1982 0
4480 9977 8721 0
1463 7795 7388 0
5210 1595 9168 0
7726 -5976 1820 0
-4581 -7082 6955 0
-4097 5000 7329 0
991 7616 4641 0
-5820 9199 719 0
7935 1067 -876 0
-2743 3982 -9049 0
7735 -3331 -7082 0
-7687 3484 7838 0
6963 307 -9813 0
-506 -7436 -5821 0
-4616 -9236 6490 0
7426 -2364 -131 0
-230 -6113 3207 0
7008 -4319 -2082 0
5485 8407 -5777 0
-6621 314 4641 0
-2691 6607 3956 0
-6237 -6780 -1666 0
7600 -705 -8456 0
2955 3390 -2744 0
4512 -2184 -1390 0
-3868 -1224 4156 0
-3901 2326 -7843 0
6706 -4174 -4020 0
4962 -2864 5949 0
8422 -2029 9839 0
971 -9816 -1565 0
5281 -5090 -5120 0
-8705 5936 -500 0
-8041 -8765 -3256 0
-1896 -8013 -9575 0
-1067 -2275 -9195 0
774 -9712 -6015 0
-8151 4571 9112 0
9697 -6747 3753 0
-2010 6764 -2323 0
6904 -5383 -870 0
-8297 7172 9323 0
-5949 -5996 5884 0
4297 1599 1332 0
-1152 -9283 -2842 0
809 -6001 1774 0
-3368 8545 3113 0
7602 6437 -2877 0
-7196 -4409 4579 0
7894 -515 -9176 0
7658 -9848 7056 0
-9124 -2481 -2347 0
5512 325 -1014 0
-8797 7988 -5091 0
-8793 6141 8293 0
6021 3047 7985 0
2835 -6396 4674 0
-4167 1875 6932 0
708 -6683 6513 0
6963 -524 4180 0
6409 3138 7833 0
1498 -3548 -9846 0
6267 6381 3952 0
7746 9060 -7916 0
-6586 -6240 -8627 0
7827 -417 -8827 0
-4885 -856 -9611 0
6586 -1275 -9721 0
320 4681 1414 0
-4859 5912 -4052 0
-9108 4585 -6437 0
-5652 -2153 4461 0
877 6748 -7290 0
4968 -2254 5435 0
-3745 -3425 -8590 0
-7607 7702 -6757 0
-8104 8119 8669 0
1239 -3923 -4190 0
-58 -7085 4399 0
-6455 614 9708 0
313 -2408 8446 0
-6733 -4376 -9571 0
-8430 -320 386 0
7966 9784 -5144 0
2016 9847 -1777 0
-5627 2608 4133 0
-7321 -7544 -2259 0
-1509 2029 -1131 0
-1016 5159 -3775 0
-5325 -3463 9588 0
9079 -5393 -2635 0
5348 671 2282 0
-3785 -94 -7805 0
-8448 -2642 -8119 0
1080 -6532 4119 0
-8186 6087 -4670 0
4684 1306 -7944 0
6637 1168 -4071 0
-1433 8521 -403 0
5018 1582 -2269 0
-1124 7468 8654 0
-6833 -9858 2671 0
126 -5643 9409 0
1553 5642 1400 0
1286 -1489 -9251 0
-7144 8467 9727 0
-2998 -6619 3768 0
4305 8763 -9101 0
9651 7810 -5111 0
-9674 7274 1102 0
-4998 3736 -6972 0
-3436 -6793 4110 0
1844 -9344 3042 0
-120 1237 3463 0
5919 5128 7905 0
-2622 6351 -9658 0
-8415 3226 -6098 0
-624 2409 -8531 0
3807 2836 -5255 0
3199 3129 -1821 0
-7748 -1315 -8383 0
-9867 2269 -9194 0
8556 -7828 493 0
8128 -2353 -4477 0
8598 9237 -354 0
-4038 996 -3714 0
-9458 -126 4407 0
-3785 -1947 -4453 0
876 -3969 -7734 0
-8625 -7552 699 0
-7247 5988 6881 0
1513 -6612 -610 0
4244 8756 6745 0
-6069 430 -6947 0
-2263 -7962 3139 0
8511 296 5362 0
8491 6325 -3181 0
-905 4549 -7972 0
-2856 -6559 31 0
3123 7630 2176 0
8812 45 -5909 0
-3315 3730 -483 0
-1592 -8363 3273 0
-6867 -4061 -2421 0
6356 746 9308 0
6669 8812 -4737 0
8499 770 -9773 0
-357 -3344 8735 0
675 -4415 -7335 0
-5868 -6937 3802 0
-9565 -7363 -6552 0
88 6972 -4268 0
7418 1499 4643 0
-3848 -2393 4378 0
8363 -3432 -3638 0
1468 6260 7301 0
1605 -6437 9020 0
-4784 -4225 9446 0
2170 -5785 -8223 0
3205 -8263 6971 0
2351 5980 -3258 0
6151 4182 -2352 0
4007 9716 -5982 0
3957 -7815 -9558 0
-9433 -972 6743 0
-4944 6654 -6111 0
-9869 -4365 1028 0
5076 5596 396 0
-4104 7695 6920 0
-6650 2708 -9271 0
359 -1686 -5821 0
751 8723 -8985 0
2641 5978 7168 0
-3648 -1457 -1946 0
-9135 2340 -2558 0
6804 9712 1091 0
-1744 605 -9210 0
-3798 -1801 8781 0
-3971 9135 2004 0
4146 1345 -1554 0
2220 -2302 -4483 0
8130 -3518 -9679 0
-795 8297 868 0
-3355 -3701 -9541 0
-2712 5275 -6757 0
-7872 6225 -403 0
-1074 8450 651 0
-1698 786 4795 0
9460 3871 9118 0
6819 -4515 -4644 0
1809 -8168 69 0
-7330 2715 -5810 0
-7140 -7134 -7 0
-3574 -8305 -3682 0
-2469 -1900 185 0
5667 -8741 -1823 0
-5030 8258 2361 0
-7661 8631 9282 0
-4436 -3857 -8351 0
-1539 -6272 3990 0
-6333 -227 5958 0
7992 -6169 -5686 0
7538 -7174 -3552 0
-8719 -7660 6541 0
8324 -7961 -2289 0
3644 -7349 2904 0
4598 -2597 -2027 0
-3032 -808 -4799 0
1718 -4915 7207 0
-6926 -1339 9289 0
4339 5380 1505 0
-6457 -8037 -6280 0
-1229 -9971 -3447 0
-4003 -3176 3458 0
6918 4928 -1687 0
-4536 -7722 -3863 0
8928 -4383 3635 0
3511 -9125 -7595 0
-753 9754 -8915 0
-6165 -331 -5180 0
5644 -5341 -2328 0
-6931 -1639 5315 0
-66 -9987 5373 0
3506 8813 9074 0
-6794 6775 -6768 0
2672 964 870 0
4506 4710 -9053 0
2617 9422 -6245 0
8163 6012 -5751 0
-1674 3747 1097 0
6781 -7717 -7490 0
7274 -9041 5732 0
1359 1887 -2254 0
-7280 3156 5425 0
-5117 5482 -2976 0
8446 -5668 -9149 0
1075 -8208 -6612 0
4836 -9335 7735 0
-453 -411 8642 0
-9238 -136 8536 0
-7685 -4765 -7452 0
7141 -734 145 0
6005 -8404 8358 0
7637 -3886 -2750 0
9566 1878 3144 0
5839 6604 7416 0
-6869 -8880 -4203 0
9366 -467 -2255 0
-6896 3333 3945 0
-8567 -311 -707 0
1501 7556 2244 0
7509 -3553 -4505 0
6010 2692 -9737 0
1856 9783 -4142 0
8838 -4133 -1272 0
-2325 8515 5901 0
-7793 1952 -8418 0
-2501 -2694 1190 0
5588 -5904 -119 0
-8186 -7823 5980 0
-8597 3680 -8019 0
-4314 -182 -5573 0
2887 -1882 -882 0
-5572 8063 5967 0
6661 -6081 -4262 0
-6851 -9127 3618 0
-6893 -3046 -5436 0
-9448 8072 6644 0
-8775 -9608 -2792 0
777 7235 1491 0
-8405 430 -2953 0
2855 -1805 9936 0
-7591 4236 5890 0
-7011 6335 -5208 0
-4700 -6680 1004 0
-8897 4907 1802 0
-7002 6266 6002 0
-6354 -7568 -4074 0
-4191 5255 -5653 0
8846 -5868 -4259 0
-762 5819 -5761 0
9535 -1921 -7740 0
-829 -1303 5512 0
4690 -3063 -9440 0
9761 -9778 7585 0
-2614 175 -8545 0
-7495 9609 -3340 0
-6086 8610 -8774 0
-9652 4097 -3231 0
3664 -3508 7399 0
-8387 9934 4514 0
-9814 3899 9552 0
-6142 -5273 -4445 0
-9399 -6693 5616 0
3207 970 -5144 0
9130 5753 5630 0
-5557 6258 2813 0
-6380 -7913 -6398 0
1789 -2217 3646 0
-2535 -1471 7384 0
3250 208 9438 0
-1465 -6091 9518 0
1948 7470 -1184 0
-9869 -3121 -9908 0
5433 4307 -6532 0
-9168 3445 -4486 0
-1358 8872 -892 0
2335 -1136 -1259 0
5115 -4060 520 0
-4252 -7567 -9094 0
9294 4568 -7198 0
-5833 -8450 3115 0
6998 6828 2647 0
-598 5405 -6328 0
2947 -6992 9558 0
-845 9778 -7857 0
8598 -8974 -2697 0
-4945 5299 5177 0
7187 4429 722 0
-7968 -2700 5759 0
-9971 -5803 -8881 0
5234 -6249 -8083 0
8506 -4060 1774 0
8509 -9239 8338 0
2943 6297 3605 0
5183 6968 -1908 0
-4570 168 -8068 0
3639 8317 5974 0
6341 -4745 -7028 0
2582 62 -6568 0
-544 -1240 1336 0
-263 -669 -3039 0
-2985 5992 -7126 0
-4711 -6497 -4425 0
-7476 2094 -3655 0
1674 -9005 -1879 0
-2047 -5659 7549 0
-3271 -7448 -1156 0
-8695 -1998 5397 0
3294 -3032 2419 0
7955 -7879 4591 0
-1837 7068 7374 0
4332 -6151 -3924 0
-37 -5892 1402 0
417 2023 8437 0
-3029 -3965 9148 0
5253 5423 483 0
1382 -826 4270 0
-9090 5368 -8321 0
2303 9310 -9861 0
-7699 -4730 -656 0
-115 -9708 -5774 0
-2277 -7743 -8298 0
-1121 -5441 -9542 0
-7694 -1341 -3369 0
-4100 -291 -5135 0
5537 361 7914 0
-2321 493 5105 0
8464 1102 441 0
5073 786 -9035 0
2117 3216 4339 0
6946 -7677 -1566 0
-4063 5700 6642 0
-957 -6064 -4648 0
9481 -7594 -1315 0
4633 -2405 -4515 0
6490 -456 -1839 0
-9650 -7664 3902 0
1653 -1971 -4263 0
-7125 -5820 -3027 0
-5994 5180 -1155 0
-9177 -3183 2175 0
-3175 4481 5665 0
-8157 -9887 -5496 0
7977 3870 6525 0
3175 -292 -5728 0
-6592 -4211 2654 0
9806 4398 4657 0
8698 7638 -183 0
-5014 4312 -5931 0
-9726 8593 9965 0
4037 -6624 -2252 0
2213 8820 8942 0
-9584 -8100 -1694 0
3588 -8452 7885 0
-9348 896 -5517 0
-6509 -8985 185 0
-8627 -6670 6197 0
3756 -7752 9253 0
2745 1214 2227 0
550 7600 -6085 0
-2254 3896 3290 0
9485 -5861 -8121 0
3268 4221 316 0
-4704 9527 5599 0
-4709 -7800 537 0
-7408 -2895 3953 0
-8370 -9305 -4376 0
-2078 -4570 578 0
6859 6330 -3674 0
1369 1481 3628 0
2436 2021 382 0
-5346 2195 81 0
4848 3905 -8663 0
1895 253 -6543 0
-7241 6768 -6798 0
4135 5571 -7940 0
4800 -6378 -4008 0
-8036 9196 -1183 0
-6142 -1382 4352 0
4469 -2117 9931 0
1704 8123 6297 0
-3710 -2035 -6619 0
-5912 8491 -9290 0
8528 -2765 294 0
-3840 6633 6744 0
1912 -8480 -1805 0
-7695 7402 -5754 0
1384 8834 -8331 0
-9718 -8364 -4796 0
-2720 -6900 -4687 0
9086 5640 -3981 0
2878 6235 9744 0
7361 -1792 -7025 0
73 7756 6959 0
2664 -1159 -3812 0
-3762 6975 6980 0
-2520 -8958 -7955 0
6610 -2355 2575 0
542 -5221 9566 0
-4093 9978 5506 0
5460 1127 -2934 0
5166 4295 1427 0
-4646 8632 8419 0
-668 -4745 1316 0
-2767 -5331 4926 0
-1004 -5493 7971 0
-7396 -8515 6659 0
8848 -4060 7305 0
-4413 -8074 -2179 0
545 3559 -1044 0
-6896 9031 -3153 0
-9524 -7394 -8950 0
-6977 -493 -6821 0
7274 -4204 3296 0
1662 8627 5731 0
-2234 3244 7382 0
1425 1103 -462 0
3096 -346 -4783 0
8910 -7452 -511 0
-4610 -4961 9561 0
-7608 2211 -8867 0
-6024 -6133 -5671 0
2556 5191 5068 0
-3872 8726 5614 0
-6623 3591 3417 0
9292 -6375 -8380 0
-9535 9473 5447 0
-590 5165 -5866 0
9926 4895 -2411 0
1358 -1550 175 0
3509 1216 7368 0
-4151 -3932 -242 0
9659 -412 285 0
8057 7876 3417 0
-8362 3849 -2822 0
-9288 -2035 6108 0
7980 -4598 -9703 0
6660 5710 -1386 0
-6974 -9570 -5139 0
-9126 833 5726 0
-1163 -6473 -1809 0
-5881 -5745 6225 0
1859 -8793 1657 0
1544 1072 6953 0
8577 8970 8736 0
-5572 7733 -7633 0
-2199 5980 -718 0
-4082 -2744 -9044 0
7730 -4227 -6784 0
6842 8256 -3775 0
-9515 -2223 -2227 0
-2193 7493 3941 0
8610 -5182 3985 0
7484 -1390 7827 0
-4772 -5595 1073 0
1713 7336 -2981 0
-3849 -1001 -3631 0
-6599 8278 -6304 0
6544 3720 -7009 0
-5997 5891 4656 0
540 7391 8229 0
-264 -3495 -4780 0
10 3398 -2826 0
5493 -4769 -9370 0
-9954 -4138 -6702 0
-1987 -9157 -5890 0
-7355 -6327 -1718 0
-1743 5079 1039 0
-3819 -5584 43 0
-8797 8241 -3081 0
-8350 4598 -62 0
-8984 8072 8842 0
-2583 -1741 257 0
-519 4102 526 0
7160 -2265 4196 0
-4402 -5536 5376 0
-2515 -8932 -459 0
3105 8475 -4203 0
-7791 -7204 9320 0
-9073 -646 4810 0
3486 -1938 2398 0
-7905 3487 -4811 0
8114 5585 1093 0
-9765 -6343 1915 0
2231 -4335 9201 0
-9217 1669 -1220 0
-7746 8753 -8096 0
1191 -4288 6772 0
5761 -6525 2181 0
-2746 594 -4999 0
-9400 6621 3893 0
323 -3596 -6865 0
381 4832 -1510 0
2645 8266 9025 0
-7764 -6435 -5365 0
3842 3290 -9652 0
-8575 -194 -5283 0
-9715 5237 -3643 0
2257 5583 -9029 0
4062 -3406 -2342 0
1801 -8684 8657 0
-6827 277 -5064 0
-1929 -2464 -2523 0
7627 -3913 4640 0
-6508 4367 5689 0
6820 9557 -7189 0
3095 7471 3598 0
-368 5094 8524 0
-9560 -9486 -5930 0
-511 8190 4204 0
4659 -5839 -1838 0
4738 -7479 -4526 0
-9980 -4808 8821 0
3532 4935 -5773 0
-780 -304 -9874 0
-9940 -6839 -6181 0
-8240 -897 9868 0
6950 -2254 -1361 0
-8920 8748 7741 0
-7083 5743 6824 0
9224 -3544 8485 0
-6364 2210 -990 0
6274 -3933 -680 0
2046 -5324 853 0
-7804 6472 4295 0
-5010 7857 2918 0
2934 -7706 3239 0
-2690 6228 -8183 0
9413 -6050 88 0
-6600 -567 -1698 0
-4291 1229 -6284 0
632 9596 -739 0
-8659 8595 3943 0
2616 -6403 -5651 0
-8033 8310 2797 0
7260 -5781 -1328 0
9071 9338 7008 0
2949 -6126 -2380 0
274 -9796 9280 0
-6932 -5056 -9793 0
-9299 -6181 3720 0
4720 3142 1812 0
9744 -2732 7217 0
-798 6876 6147 0
9424 -8447 7163 0
4767 -5132 -2805 0
-5244 -2999 7548 0
8052 -6134 -3515 0
-8902 1820 -7319 0
-7725 6756 1092 0
-6818 -9072 -7052 0
4817 1489 -1454 0
8517 -9106 877 0
7613 -9646 3191 0
4123 -2165 5185 0
3987 9595 -4750 0
-8653 -7298 4082 0
-4111 -7017 -9085 0
-2687 -1341 4002 0
-9217 -8374 -1164 0
-6152 991 8510 0
7933 -1715 635 0
9312 309 3107 0
9118 9698 8226 0
997 -264 3909 0
8001 -5920 -4193 0
9049 3697 -8261 0
7832 -7927 9900 0
-2120 9305 599 0
-6467 -8865 -7926 0
8867 -2725 8931 0
4122 576 5947 0
6019 -8386 7856 0
3133 -8722 8219 0
2952 3639 8496 0
-5383 -2849 5179 0
-7857 4379 -9616 0
-8099 -9260 -2401 0
9767 3614 -7123 0
-5574 -2901 -460 0
4484 -5059 -5047 0
8815 -8069 -7711 0
-2609 -4163 3208 0
-8958 -9374 5422 0
2955 -663 2726 0
-7094 -6548 3722 0
-3643 481 1987 0
8401 -7230 -8518 0
-5027 3871 4621 0
4679 -95 5992 0
-9220 -9028 -43 0
1443 8410 2378 0
3331 9757 3730 0
-6927 -7598 -5673 0
2475 7496 -1354 0
-6641 -8881 -4593 0
8696 -8969 -4998 0
-3296 -6717 -5452 0
2733 -5998 8356 0
5425 8983 -4954 0
9560 -3094 6090 0
-6514 6594 -8158 0
5247 -4864 3391 0
-8856 -1095 8126 0
753 746 3708 0
-6591 4902 -8332 0
5963 1066 367 0
387 6570 -1840 0
-3899 7483 -6050 0
1160 -4565 1349 0
1485 -7087 8323 0
-9511 8345 6153 0
-8386 6164 -2534 0
9161 5901 -4734 0
9412 5892 -7987 0
5400 1266 4126 0
-7325 6404 -6929 0
-5676 -2875 9022 0
7360 6853 -2721 0
-5732 -6907 -5120 0
9021 4790 -2690 0
1282 -9022 -1385 0
9496 1485 -4255 0
-1830 6584 1756 0
8105 -2228 943 0
-2387 7991 3241 0
5564 6460 -2624 0
-575 -4007 -618 0
2146 -6521 6253 0
-2915 -5295 2385 0
2674 7733 -3580 0
-7347 -477 -1804 0
7795 -1429 7198 0
-3916 -7186 -1956 0
986 8042 2609 0
2490 -7503 -8393 0
1130 -1664 -2071 0
-7844 599 5825 0
8810 456 -4341 0
6100 -1324 1191 0
-3721 7932 -764 0
-5768 -4630 -5954 0
1488 -8211 997 0
6365 3392 -3700 0
1165 592 -8344 0
8310 2687 9024 0
-2503 -4556 -1489 0
8265 -430 8334 0
7907 -4966 -5560 0
8731 7382 3716 0
-5465 7542 -4183 0
-4486 -9239 -5288 0
9503 7576 6469 0
-1605 2359 9716 0
8835 -4425 3402 0
1481 -94 -4427 0
3813 -3272 630 0
3082 4632 6363 0
5562 7883 -5731 0
-117 -1171 -2334 0
8298 -1654 -3885 0
1836 -2668 9030 0
4931 3803 57 0
-1691 -9368 6002 0
7117 -7276 445 0
5806 4534 9814 0
5926 4091 9525 0
592 -3808 -3413 0
-8539 -266 3645 0
-2910 1241 9427 0
4566 813 -4409 0
985 9650 2386 0
-1547 -796 -7260 0
3563 -9768 9685 0
7281 -7206 2421 0
6146 -8683 -9413 0
6974 -3483 6599 0
7285 7421 5767 0
3786 -1086 -7642 0
-8608 7884 8220 0
8905 -7947 -4965 0
7516 6624 3468 0
-5587 5725 -5170 0
-6190 4433 -4036 0
-526 -67 -5740 0
-226 -2316 -3405 0
-2214 7181 -3964 0
4462 7744 -6748 0
-8481 8029 -5334 0
-5389 -2887 6570 0
5016 -8520 -3359 0
9377 7825 -111 0
-1517 9344 -508 0
-386 -6055 -9141 0
1597 603 2327 0
5050 -3931 -477 0
3226 -1047 -6458 0
-605 5780 5649 0
3691 -488 -6082 0
-8777 -6114 5303 0
9771 -9399 9512 0
5066 -9710 -5813 0
2278 -9767 -2002 0
-3068 3583 6037 0
4496 1852 5541 0
2599 -3353 5636 0
-6038 6866 -9219 0
7231 6575 -360 0
4951 3621 -7278 0
9140 -5963 6684 0
5880 3271 8804 0
-3552 -9147 -9505 0
-4159 4571 -8896 0
1844 -6762 7369 0
-2937 -8847 5261 0
4517 4822 -8943 0
3886 176 -4598 0
3389 -1448 8957 0
4732 -6873 6335 0
-2929 -9757 1356 0
3910 -5617 1033 0
5656 -1189 -4266 0
3493 -1597 -743 0
949 8327 -7947 0
-1268 9186 -334 0
9567 -4774 5168 0
-1171 -926 -3056 0
-8426 -269 4566 0
6984 7237 7939 0
6426 -3121 -257 0
-4059 740 7537 0
-3539 1756 -4909 0
-4827 5380 -2723 0
8519 -326 679 0
-8566 -8110 -5569 0
8133 6864 -7486 0
-9746 7919 839 0
915 -1590 -6924 0
6857 -3251 4455 0
-9277 -5207 7127 0
-393 -397 -3434 0
-2258 9479 -6112 0
-2138 -201 -9600 0
4610 7808 8307 0
7038 -1605 -92 0
4760 -1609 8791 0
268 9320 2218 0
-6542 4271 6827 0
5481 -8871 2362 0
2124 1163 204 0
5759 4661 -4975 0
-2644 -6478 -701 0
4483 4930 6818 0
2096 8533 -8060 0
-6436 2435 594 0
-9294 -6027 -6556 0
8839 1538 -339 0
-5182 -9826 9476 0
7537 1321 -7204 0
-1514 -7515 -5193 0
6434 -9083 3838 0
2006 5482 4727 0
-8654 -4329 5661 0
-9818 9338 -3365 0
5159 -2980 -4637 0
3582 9076 -9965 0
-6863 8737 -9697 0
1009 7711 2555 0
8264 1163 -9398 0
-4971 -9895 7790 0
1980 4538 -6744 0
-3272 -1010 -3694 0
8364 -5210 7573 0
7139 -2205 8523 0
-1476 -7830 6057 0
-5258 -6773 -1293 0
-5427 -1869 2220 0
2892 -3798 4546 0
-3101 4470 -5196 0
-7064 8803 3192 0
-3110 -3937 3557 0
-4391 -3591 2041 0
-7515 -9334 7322 0
-1672 -5664 6514 0
9084 -8368 -8015 0
3331 -8953 -8173 0
-3961 8880 -2060 0
-665 1666 -9607 0
2702 -905 -8145 0
-5271 5199 139 0
-5182 -5715 -753 0
3576 5060 -8570 0
-7095 7470 -8210 0
-3204 -87 1880 0
6928 -8560 -5398 0
-49 3159 6377 0
1811 -8410 2728 0
-249 7186 8583 0
3938 -8739 3800 0
-1172 -3291 -5008 0
-4507 581 -3816 0
-5244 7563 -6955 0
-6141 1492 -3831 0
-2354 -8407 3303 0
-7154 -2888 5850 0
-9305 -7796 -871 0
2970 2537 -6921 0
5770 -7876 4339 0
-4387 8825 1505 0
5912 -3709 498 0
-409 -4216 7261 0
5560 947 -7586 0
-8253 6709 6901 0
-9653 3280 -8956 0
4629 -6677 -1866 0
-7845 5251 -4331 0
-8885 1619 2928 0
-6639 -7221 -4196 0
2367 -8548 7189 0
6680 6992 -8205 0
-1519 6634 5549 0
1125 5066 -3606 0
9773 1370 -9686 0
-1021 4680 5694 0
-3449 3273 -9039 0
8016 -1015 -670 0
-238 7440 6203 0
-465 3447 9938 0
-8686 -7299 8620 0
2443 -4516 -9664 0
-1252 -7680 8537 0
-3776 -7128 824 0
583 -8068 5670 0
5492 -2338 1189 0
7318 1467 6007 0
559 6922 7014 0
2103 9262 1031 0
7715 7336 -148 0
-8223 9881 -5794 0
6391 1105 6654 0
6643 7451 1941 0
90 -6022 4722 0
8546 780 -8532 0
3874 1785 -3388 0
-6810 -6501 -514 0
-6406 7230 -4871 0
3631 9222 -4374 0
-6967 -7933 1584 0
8413 7371 8734 0
8771 1990 -5417 0
6494 -9544 8813 0
-2719 -991 3608 0
1255 7787 -6785 0
6161 -1594 1945 0
-4748 -2283 4 0
2644 2468 -7799 0
-4468 -8535 9411 0
4291 1224 -7483 0
-383 6534 9095 0
4854 -3128 3362 0
4279 -2433 -8661 0
4757 -4213 -7655 0
8701 -5080 -4484 0
-2212 5000 -1739 0
-6333 5358 -7058 0
-9820 -8101 -7270 0
-6978 4736 2473 0
7182 -1708 -913 0
1362 6191 -769 0
9107 200 -1089 0
4808 1670 -6914 0
8012 6779 -1582 0
-97 1046 2140 0
6951 7183 8510 0
5052 8879 -9747 0
4913 7867 1112 0
-6761 2654 9162 0
4905 6505 7834 0
5843 2242 -9347 0
-9923 -803 -5210 0
5081 8099 -9313 0
6665 9769 -8680 0
1706 -7998 7821 0
-1545 -7911 5085 0
-2988 -6651 -8682 0
-5721 4711 -1686 0
-9586 5737 7657 0
2200 4748 4847 0
-915 1032 3359 0
54 -1513 -3330 0
-6272 2433 -5404 0
-6696 1679 2792 0
9572 -9393 7060 0
9310 2653 3650 0
1877 9736 9436 0
1275 -5685 -1697 0
-4204 -5367 -2387 0
-740 -4649 8986 0
9409 5765 -4553 0
8955 -9175 -5815 0
-9985 6846 -1278 0
-8935 8483 5090 0
-8447 -6802 1815 0
1103 -7846 6611 0
-8602 2427 5661 0
-2945 1312 4361 0
5648 2537 -9189 0
8545 8459 3896 0
-2525 -2396 7396 0
-1157 -9139 5839 0
6133 9901 9009 0
-9896 -149 -9434 0
5413 -835 -2637 0
7469 4720 -2554 0
7979 -3934 5339 0
-8668 -2433 -1478 0
-4114 -6184 6137 0
-4780 313 -9027 0
-8199 7888 2258 0
-7220 -1004 -6392 0
688 1578 6508 0
-4871 2115 -4361 0
6166 1502 -1768 0
-8049 6375 -807 0
8798 -1440 9862 0
4894 6903 9433 0
-1682 -6604 2079 0
-2387 5061 9327 0
-6303 -9377 9965 0
3002 3547 -8985 0
5722 679 2373 0
-1574 757 -1744 0
499 -6751 -1572 0
-472 8765 -4521 0
-3394 -7124 7510 0
-7293 5224 -7 0
7495 5000 7114 0
-6073 -5495 4251 0
8499 -8176 8971 0
-3149 5724 8762 0
-1876 4070 -6326 0
5655 4689 -407 0
5425 -8525 9192 0
500 -1452 -9528 0
-1226 -2899 -919 0
9979 -1933 8927 0
113 2740 9421 0
-9881 -8237 -1887 0
-8436 9885 -5532 0
4160 -527 8513 0
-4362 -9288 1857 0
5477 -4441 -6608 0
-880 5637 8729 0
6431 772 -473 0
1590 -5468 475 0
3084 3042 311 0
-5843 9910 -6180 0
-5290 -7103 -9064 0
5915 -5311 9954 0
8276 3503 -3854 0
8432 -2574 -1338 0
166 7944 -7723 0
-9400 -8077 -2767 0
-5240 5298 -2756 0
3673 9571 6116 0
-8485 -4516 -1204 0
-795 5924 7151 0
-2199 1697 -9434 0
-6703 5550 5404 0
7032 -8206 -9861 0
-2043 -5122 -5806 0
7080 -5902 -7205 0
7699 -6608 1950 0
-5692 -9149 6007 0
348 679 8287 0
-9348 1777 6399 0
3812 -3583 3891 0
5877 -5581 2473 0
4542 -281 -6527 0
-9018 3738 -7057 0
-6077 4302 -9576 0
3916 -4034 -8881 0
-7144 -7350 -9347 0
-466 -2855 6441 0
-42 5843 -2582 0
9770 -6851 -3912 0
3858 9667 215 0
1446 -9968 5579 0
-4977 -2378 9467 0
-7321 382 259 0
-1210 -3545 5803 0
6229 3553 7436 0
1723 -5400 -6342 0
-3640 1166 8550 0
6382 -7260 -4508 0
-9380 3041 -7618 0
8120 2874 -6940 0
-5659 9357 7800 0
-1951 744 -2165 0
-9640 -5716 -1100 0
-8361 -418 -2076 0
9994 5963 -9806 0
-7682 6758 -9827 0
364 1519 2709 0
-8829 -7321 8779 0
-4184 4809 6570 0
-3969 -3683 -5629 0
-8027 5104 -9219 0
-7221 -3438 1500 0
-3040 -4630 -5665 0
4568 -4450 7999 0
-8622 2417 7571 0
-8245 -5219 -1228 0
9035 -1529 2035 0
-1903 9698 -925 0
611 -1672 -8846 0
5959 9646 6504 0
-7825 6527 -7022 0
-3336 8680 -9036 0
5213 -9573 -8464 0
3072 -7759 -5400 0
8082 5479 9415 0
8018 -5941 -7295 0
-9457 6294 3758 0
-7141 9738 8947 0
277 6320 3559 0
-6517 -7926 -4723 0
-8489 -9504 4114 0
558 -4052 -5194 0
591 -9214 -7613 0
-897 928 -7600 0
2689 9422 -343 0
-7522 9135 -580 0
-9254 -2137 7332 0
-8154 2864 -6146 0
-6921 8125 -7917 0
5415 5837 -2182 0
-9310 1832 -1274 0
9086 -8555 4989 0
9991 3340 1829 0
2704 2860 7965 0
1217 -3864 -263 0
9351 -8401 -5771 0
1425 982 2145 0
1085 -2772 7939 0
-5250 605 -6332 0
-3180 2084 -2479 0
3615 -445 -9241 0
-2267 -9969 24 0
-5989 259 288 0
-55 3422 9822 0
-3963 -366 6964 0
-1913 -2980 -4848 0
4174 -4144 4231 0
-2320 -1738 115 0
-1204 -5587 -4550 0
6220 6748 -1699 0
-7464 -4033 8245 0
3288 -4847 -6628 0
9087 7552 -8552 0
1959 9087 2833 0
-8710 -7425 -1605 0
-6435 -7246 -5076 0
-5533 473 7790 0
2557 9231 1830 0
-8478 -1420 -9521 0
9 -2302 -3780 0
-8964 8842 -6021 0
-4381 1706 -5234 0
-6949 -9083 2187 0
-4598 2756 4340 0
8857 1786 -5730 0
7378 -668 -5235 0
-5685 -8802 975 0
2257 3033 2660 0
7898 -7206 -9213 0
8932 6221 5324 0
-8021 -9073 2287 0
-2880 -4371 -5832 0
-5069 3653 5231 0
6855 -3127 1620 0
5029 -7734 -3077 0
-3162 7960 -4815 0
5329 -4743 1815 0
1505 9940 9334 0
1666 6570 5096 0
3144 3323 -7856 0
7127 -5213 730 0
3478 -825 7636 0
4222 9227 -6951 0
-8144 5341 8442 0
-3045 -8393 5448 0
825 -9072 652 0
-1279 1216 -7072 0
6464 -4140 1629 0
-1641 6944 -382 0
-1195 3013 -6996 0
-7941 1941 -6495 0
3658 5111 -3390 0
8488 5394 8468 0
5354 9720 -2200 0
5801 -4681 5841 0
9624 8915 -8358 0
9041 3930 8593 0
-9307 -9206 -6875 0
-2367 3854 -7425 0
2184 -4388 -416 0
-4640 2457 8626 0
-2666 2432 -9857 0
-5038 9655 6931 0
-2186 8920 -695 0
-9394 -7101 897 0
7219 -1680 -8791 0
-8917 4152 4808 0
-7943 1619 -4866 0
5738 4256 -8377 0
4059 9195 9304 0
-6384 7507 3254 0
-6080 -6225 -8623 0
5311 -5083 9653 0
-1892 3028 7055 0
646 -1242 1930 0
-5559 -1158 3542 0
9742 9238 125 0
4964 8828 -7800 0
-3438 2430 -3252 0
-7815 7384 -8187 0
-9374 -7358 8416 0
9348 -1394 5019 0
-5756 7676 -5386 0
6870 -5996 -99 0
-8768 6557 -6323 0
3089 7014 228 0
6964 3334 -3212 0
4520 5987 -6139 0
-5569 6834 5198 0
-9791 4312 3360 0
-2701 -3723 -5527 0
-9060 -2235 9451 0
3857 9465 6510 0
-1779 -152 837 0
-7302 6108 -3337 0
2304 -2005 -7935 0
-8873 -5259 537 0
-6331 5497 -8098 0
-745 4067 1033 0
-2200 5536 7933 0
-6029 -7013 -9340 0
7389 -9576 -9495 0
-8288 -6849 7311 0
-69 3639 8357 0
-5691 -3587 -3601 0
5751 -1036 3601 0
478 4090 -3308 0
-2324 -9182 -1985 0
9718 6352 9338 0
7087 2394 -13 0
-9550 939 -2037 0
-7818 3307 8185 0
-9965 -106 -790 0
7335 -3490 1832 0
-9154 5534 9975 0
-9595 4191 6768 0
-7112 -9046 -4929 0
-8973 4241 -5058 0
2887 443 8637 0
526 9930 -3138 0
-897 5221 -1273 0
-9024 -3259 4719 0
7915 -7176 -247 0
9164 1216 -4089 0
8042 4583 3979 0
-5226 -3371 -2731 0
9181 3753 -562 0
7853 7678 104 0
399 8886 393 0
545 -4989 -201 0
4038 -8816 1051 0
-2270 4439 -4733 0
-3504 3498 7938 0
-2068 -7406 8350 0
3246 3359 -8933 0
-2036 -9027 575 0
6527 3286 8282 0
-4453 -2921 5891 0
6858 -952 5524 0
-7389 -451 -2708 0
8572 -8489 9295 0
-1477 9450 -8909 0
4076 2546 550 0
2116 4480 -4782 0
-8285 -661 -2176 0
-832 -3338 9784 0
-2059 -7950 -1977 0
-3391 -4796 1403 0
3021 9593 -7308 0
7962 7872 5490 0
3071 -1167 7403 0
3195 -5862 -6186 0
-9001 7246 5454 0
-5524 2377 3559 0
-7589 -2823 -9033 0
-3165 -2655 1577 0
9737 -3261 -5860 0
3036 -823 4250 0
-2235 -252 9012 0
4217 6450 1058 0
-9044 3966 -2133 0
2638 5484 -2570 0
-6573 -1504 -5484 0
-1266 892 2966 0
-9339 -7168 -2554 0
-2011 -6866 7254 0
-6051 -7530 5824 0
-8248 -9989 -4283 0
413 2879 -2522 0
-8005 -8300 4543 0
-9645 -5690 4653 0
8322 -5092 -8308 0
-2223 259 -930 0
3956 -5807 -845 0
-6624 -1812 -8477 0
7569 -1449 6370 0
7149 -8753 -6025 0
-2471 -7029 -8739 0
-7679 -9152 1364 0
4344 9541 5218 0
1177 2991 5887 0
960 8551 -552 0
-3001 3063 2979 0
2870 9357 620 0
-7374 6593 1558 0
-9951 -5646 3807 0
-518 -4369 8061 0
8309 -5768 -167 0
-5852 -212 8723 0
9244 -2824 -7788 0
-9395 1448 -2192 0
-8056 8286 -4169 0
-8180 6330 -47 0
-4968 -1193 -418 0
7082 3812 -2311 0
8915 -9155 9770 0
-1942 -492 -4265 0
-9231 1194 7590 0
-7534 4739 -3335 0
-6792 -5053 -6130 0
-2810 -8603 5633 0
144 1380 5001 0
2537 -315 6795 0
-5257 -7011 -1420 0
1434 5127 -782 0
-5957 1912 -1594 0
-1699 8470 1537 0
-1601 5517 -1723 0
-3926 9474 -291 0
2066 4443 9869 0
3123 5994 4040 0
8298 2094 -6731 0
-2194 -2437 -6933 0
-9955 -6963 -4573 0
3082 -8290 -932 0
2725 4363 8775 0
1523 9822 1075 0
-2178 7214 -3649 0
-18 -7835 522 0
-7544 2166 5954 0
5407 4285 6818 0
-7112 -2454 -5951 0
-4065 -1643 -5698 0
-2269 1817 1908 0
8005 -4586 8956 0
-892 -9836 2051 0
-680 8617 2072 0
111 6957 9955 0
-7435 -9913 4864 0
-7568 -7553 -3597 0
6465 -1448 -7902 0
-945 -9156 -627 0
-4916 9177 304 0
6639 -4882 6427 0
-1822 -4963 -6293 0
3397 -6489 3092 0
-6698 -5059 2101 0
-1698 1509 -8380 0
-5639 7470 -3663 0
9151 9574 -3519 0
2647 -9290 -393 0
8155 -9431 -3546 0
4783 -9993 5076 0
-5371 -7383 6013 0
-3495 6341 -6785 0
7119 -81 -2782 0
3715 -3178 920 0
-8722 -5489 -1893 0
2276 -9906 7332 0
-6034 9990 8841 0
7372 141 -5493 0
9444 8269 8794 0
7315 -2217 642 0
208 3079 7343 0
8567 -2216 -1432 0
7504 -2109 -1503 0
2001 -8162 -5419 0
-8437 -828 -8280 0
1987 1978 -8723 0
5975 3381 -4463 0
2837 -7768 -2080 0
2 -1072 -9571 0
6711 -2473 6995 0
7945 137 -520 0
-6572 -3999 -6911 0
-6654 -7664 -1774 0
3148 -6204 -7642 0
-2519 6576 6472 0
9638 3718 -9812 0
5219 -5187 5 0
-3247 7459 2159 0
-4287 -6219 3358 0
-6753 -5558 5376 0
-4446 -9311 4256 0
5285 -7346 -1842 0
3340 4769 2713 0
9680 1637 -7979 0
-3654 346 -3226 0
2494 9298 -5883 0
-4183 -7450 -4378 0
-5671 4995 3318 0
9080 4985 -835 0
6668 -6968 -8756 0
710 -4227 -3927 0
4590 8445 6289 0
4445 -6962 -1638 0
-230 -2516 9257 0
-5387 -2478 6466 0
-4504 -2424 4131 0
-3218 -9844 -8358 0
4486 1440 9683 0
-1251 -7415 6094 0
4166 6377 5282 0
-4212 -4076 7584 0
8065 -3752 -9060 0
6861 2271 9133 0
2803 2404 5970 0
-7930 -5601 -2540 0
-8002 -4821 4006 0
-8036 -8414 7807 0
-5122 -3400 139 0
1363 -1947 2214 0
-4438 1533 -6095 0
-3269 9889 -9660 0
-1297 3841 7361 0
-279 -8559 -7524 0
-7263 -4987 -9091 0
-2929 7975 -2594 0
-74 9388 1478 0
7384 4917 1554 0
1388 5458 9347 0
6056 9349 4474 0
-8203 -8709 4870 0
-8984 -421 -6784 0
-6723 6712 9327 0
-673 -5471 -4571 0
3099 -5228 8879 0
-5670 -2252 586 0
-2150 7479 2559 0
-4856 -8722 -4275 0
1922 2859 -1713 0
3904 -8054 -7008 0
3923 4781 8578 0
1221 1723 -987 0
8351 3625 -4613 0
-8344 230 -2590 0
-4732 -2221 2613 0
-4621 -9377 8503 0
-598 1700 4761 0
5372 -8053 5867 0
-1317 -755 -9180 0
6597 3698 6328 0
-6904 5158 8331 0
2708 -2719 -8302 0
1352 1469 564 0
1045 546 -6551 0
-9284 -2304 -2183 0
3992 8055 -9061 0
-8411 3279 -1109 0
1305 6380 -4747 0
7989 -8716 -813 0
-1814 -438 1139 0
-6414 1015 -6754 0
-8358 485 3276 0
-1378 -5761 -7915 0
3539 6137 -3458 0
7551 6621 9260 0
8501 -8844 9610 0
4101 3730 4592 0
-977 1963 7658 0
-3068 -9948 -4218 0
-7905 4896 -9510 0
-7037 6279 498 0
4349 7436 8340 0
5276 9733 -2148 0
3673 7293 1671 0
-3992 -3178 7415 0
6353 -1440 4942 0
1933 -4113 -5541 0
4012 625 -5511 0
-2343 -659 9666 0
4153 -9634 -2887 0
5723 -4444 2252 0
-6732 7986 -2163 0
-1197 4067 -9918 0
-7627 9467 4570 0
5895 -5164 -1477 0
-5663 1322 2817 0
256 2525 -3384 0
-3910 8226 -8275 0
4829 1485 9173 0
4263 6520 8208 0
-1223 9080 7325 0
-2786 9506 -495 0
-2065 945 -3131 0
9404 -7514 -4265 0
4371 -6924 1102 0
5542 5048 3953 0
8029 6933 7600 0
8908 545 3211 0
-2008 7974 9596 0
2716 -3729 1883 0
-2938 9629 7569 0
-2492 8099 -1060 0
8592 1134 -7196 0
5451 -2671 -5568 0
-4485 1050 -4301 0
7037 -7193 7365 0
1627 -1720 -8196 0
3797 -7576 9328 0
-9722 264 7272 0
-8432 8996 9967 0
-5130 5388 -9155 0
-8095 -181 -8142 0
-197 4578 -2097 0
-2731 2516 -8713 0
3151 -4540 -8247 0
-7024 -5565 1807 0
-1773 2310 3351 0
9341 -6187 -1115 0
-4034 -5575 -1038 0
-3734 -8807 4943 0
-5474 -7188 7740 0
4097 4259 -2256 0
-3223 -4344 5866 0
7907 -7167 -5118 0
-1025 3435 -775 0
8352 3159 -3302 0
-7085 6851 -9827 0
-4989 291 2470 0
1457 -6654 -63 0
-5797 -1370 -199 0
7651 1812 -6622 0
9537 5961 -2921 0
-8321 -6959 7023 0
3450 9765 2256 0
-2147 -4042 -5366 0
-271 -3779 3841 0
-1175 -4972 2867 0
-6282 3702 9288 0
7379 -8121 9323 0
975 -9475 6254 0
2813 3473 -7451 0
1178 -8360 7747 0
6177 -7553 9937 0
7812 -8991 1867 0
-1950 -1263 2773 0
3463 -2742 -1865 0
-4595 -8391 -6074 0
6000 3192 -4104 0
-244 -4944 -523 0
-8657 -2519 -4821 0
-9944 934 -2941 0
-7450 -9649 1579 0
-721 -7913 115 0
-6697 7661 -3108 0
-6625 -7453 709 0
1974 -5306 2606 0
-8580 8494 4439 0
-2838 -6633 5861 0
5964 6433 7567 0
-1472 8114 -9939 0
9181 -8433 7036 0
-730 954 5956 0
-1368 2070 -4429 0
-8301 -9400 5596 0
6755 249 2444 0
8421 -7324 -5387 0
-8054 903 -8309 0
-3303 4965 -9171 0
1305 7845 3802 0
-5572 -1682 -3330 0
9573 2465 992 0
-2630 -5411 -9732 0
-9356 4185 -8974 0
-2302 9365 9458 0
-7403 -1252 697 0
1093 -8999 -4545 0
5466 -8962 6516 0
3757 1213 6577 0
-4237 -4393 8767 0
442 -9490 1231 0
7885 -8131 3521 0
7856 3756 -159 0
-9252 -560 -8338 0
-6695 1751 7523 0
1396 9746 7448 0
-7808 -5329 -7237 0
-3928 5117 -6094 0
6571 5470 9364 0
8474 6447 7171 0
-3180 -277 -1206 0
-2503 359 -6942 0
-6968 -3439 -9020 0
-5206 -3633 7477 0
-2082 1121 -6320 0
7384 3462 2702 0
3810 -9510 3793 0
9766 2273 -5686 0
8876 -6317 -5271 0
-1985 -9715 -7933 0
6494 1945 -9042 0
5739 2919 8728 0
-5983 4254 9891 0
-8910 3106 -9643 0
-2513 -2096 2056 0
-5660 -9660 9498 0
-8916 2898 6626 0
1252 -5141 7257 0
-9788 8238 -9407 0
6124 3494 -7583 0
5612 -8631 7791 0
3439 4587 3675 0
4506 -6999 1307 0
6681 9463 -4463 0
-2596 -8986 -81 0
-2265 2171 9501 0
1945 131 8337 0
3590 793 5669 0
3610 9092 -1839 0
6225 -103 634 0
-7905 6363 6912 0
-1794 -3647 3250 0
3874 -5558 -2769 0
-4670 -8365 6300 0
1915 -4631 1176 0
6972 -4379 -3713 0
-5456 485 -3656 0
-3063 7300 4871 0
3567 -2220 4411 0
-6398 6991 3381 0
-5622 -5103 7139 0
5137 5102 -3865 0
8121 9892 -5385 0
6501 -4366 4552 0
4722 7538 -1677 0
4233 129 9364 0
-6932 3640 6969 0
2717 5124 165 0
-491 8182 -5127 0
3250 -5723 -5858 0
-1956 -7421 -9343 0
7840 5723 2429 0
-5808 -6977 2018 0
2002 -5911 7261 0
5353 -8811 7695 0
937 -1738 -5435 0
7172 9042 810 0
4706 2681 967 0
4962 -1244 -3120 0
-3990 -8797 -2420 0
-7885 -1111 -5546 0
9501 9967 -8793 0
-6378 -1009 -1561 0
6604 -6335 -4601 0
7572 -3963 7014 0
-7228 -8427 9820 0
5547 -4732 -3373 0
1541 1302 404 0
-6510 -4159 -4653 0
9496 -948 3557 0
-8757 -9035 -5444 0
290 9712 -6763 0
-9974 7734 -3066 0
4663 -3001 -7006 0
5827 5798 -8577 0
-3614 -1913 -2952 0
6868 5306 -4360 0
6299 8685 2895 0
-3663 -2649 6266 0
-9293 4204 2571 0
-8422 850 8653 0
3370 -2847 9847 0
5918 3961 5724 0
6413 -9134 4472 0
6369 9704 6577 0
-1813 4672 8123 0
-3788 -5946 5146 0
3596 9989 -1604 0
-3402 7108 -1664 0
-2281 8902 -8973 0
-227 -3863 3228 0
-6880 912 -3912 0
320 -1607 3237 0
4665 -1111 7887 0
8249 -1399 1237 0
-7609 234 2361 0
-8537 4273 1865 0
4733 4843 4984 0
1707 9149 9464 0
-3448 -2202 5090 0
-1714 -6013 -5687 0
2659 1058 3908 0
8903 9800 -3164 0
-7138 -2994 1885 0
7154 3081 2429 0
-6107 4453 -2052 0
8202 5286 9116 0
8417 -5948 8749 0
-3166 9189 -9683 0
7470 -1891 -7850 0
-1888 3991 4636 0
-1744 2503 1159 0
-814 -4326 4844 0
177 1468 3120 0
-9602 -8746 7595 0
-4145 9556 348 0
-3509 -9697 1622 0
5770 2906 -4086 0
7232 8371 -8979 0
9388 -8788 -3936 0
510 -812 5721 0
709 6919 7511 0
-3422 2640 5242 0
-3918 -9955 -8178 0
-8371 -5598 -2843 0
6425 -745 2323 0
-5351 804 192 0
5538 -3101 -7581 0
4872 -9200 6777 0
43 -4782 -6715 0
-1122 9644 -6126 0
9493 6034 -1317 0
-7124 8988 -648 0
7878 -7274 -9007 0
-63 -9388 6927 0
4273 -1 4835 0
2737 9687 3890 0
5535 -6560 844 0
-5821 -6106 -3853 0
7454 4190 -8423 0
7849 -6570 9686 0
1632 3857 -8318 0
-9037 9286 -6585 0
216 9706 5933 0
-8907 -2360 6441 0
4998 -7705 9224 0
-5523 -5112 6672 0
3417 -7999 -9904 0
-6051 -8824 8430 0
6448 8769 5694 0
-3318 -1046 5354 0
-902 -1578 -505 0
-1093 -9896 -603 0
-3147 8728 -4319 0
-1465 1238 9681 0
1822 -7439 7937 0
-9763 -4697 2138 0
1071 -7181 737 0
1649 -8650 6689 0
876 4133 2901 0
1382 -3135 210 0
-1403 -8129 8173 0
-50 1735 5611 0
-9102 1606 -4263 0
-3360 -4146 9199 0
-2969 729 1052 0
-3948 8551 -3462 0
9561 -1298 3738 0
2811 -8371 6770 0
-5503 -8398 1342 0
-6018 -7925 -4460 0
8138 -5423 7956 0
-4734 -8390 -1071 0
-5162 -3436 -6458 0
-6561 9872 -9032 0
3326 -5611 6652 0
-6901 5341 494 0
-6127 8290 6379 0
7976 2483 -4538 0
1168 3835 -9550 0
8643 1691 -8489 0
-2596 -5866 -2318 0
928 2773 -7606 0
772 -6653 -681 0
-8978 868 -5217 0
2717 7303 5800 0
9312 6964 1999 0
-9768 8414 -3571 0
1781 -3251 -5284 0
-1296 -7092 -1017 0
-7868 2357 -3993 0
4584 9925 1934 0
2422 4434 -5482 0
-1167 8134 4931 0
-4165 -9182 3545 0
-2024 -5894 -488 0
9136 -6159 -8656 0
448 -8096 4320 0
-325 8013 -7912 0
-6218 6002 1469 0
1577 -3899 1775 0
4464 -5539 7014 0
9215 -4393 2731 0
2162 -8918 6002 0
-7880 -1116 -8586 0
-8110 1925 -9049 0
5758 1189 5121 0
323 -147 -3380 0
-8235 4980 -2577 0
8659 -7383 -8155 0
-4518 -7934 3660 0
7278 8763 6162 0
-2003 4843 9521 0
6780 -7510 1777 0
-1505 6578 -1337 0
-4635 3721 713 0
9147 -5703 -5488 0
9124 -3162 2871 0
-5521 4143 -433 0
2808 -5416 -6466 0
7019 1283 1916 0
-4619 8125 -6172 0
4940 -9091 5221 0
-1775 -8312 5660 0
-9803 -1500 -3461 0
9589 -9150 -1952 0
7680 4400 7239 0
-8804 9028 -6909 0
5449 -1338 2877 0
2774 -5006 -9113 0
-3913 5779 -7718 0
3666 2835 -2451 0
1346 -6312 -2350 0
7258 -1768 -3696 0
970 9754 4036 0
137 -418 1205 0
4688 -7475 -2530 0
2992 -8575 -1686 0
739 -5046 -8583 0
9748 -3708 9833 0
-2246 6181 -348 0
4725 4494 2662 0
-2964 2112 -6622 0
-8041 263 7003 0
2137 -8121 -8829 0
9206 3715 239 0
4573 7862 2536 0
-2116 -4517 -8066 0
-3289 -8943 -8386 0
-1320 -2711 -3282 0
107 7414 1834 0
6459 -8957 7496 0
-4755 1088 8416 0
280 4912 -7048 0
5109 9066 9839 0
1766 -2496 9121 0
-4780 -7025 -4139 0
-7510 351 -2020 0
3875 -7707 8578 0
-7520 2785 4010 0
5603 7491 -1900 0
-3709 2099 9541 0
4758 3288 6009 0
6473 -6354 6629 0
-9510 -8493 1156 0
4700 5318 9210 0
2538 -563 -9075 0
9048 4204 -6554 0
-6623 3822 -3779 0
8420 -4548 -6945 0
-856 476 -1606 0
2714 -728 3850 0
-9927 7945 -1580 0
-3835 -6173 -3610 0
-6136 9881 -2899 0
5699 -4211 -4943 0
2577 2959 5225 0
2020 9658 -3534 0
3093 1827 -1237 0
-2303 9984 -9627 0
4348 6876 5039 0
-7523 3759 -620 0
5255 -3627 2974 0
-4362 -8597 2809 0
5426 177 -483 0
928 -524 5100 0
-945 -6209 1129 0
-4465 4097 5646 0
6548 7253 5341 0
-3464 -5927 -7684 0
453 8950 -6316 0
3837 -9587 2115 0
9508 -3356 -2591 0
-315 8054 -8676 0
459 985 -4753 0
-9366 -7756 4365 0
4326 -994 5431 0
-2090 9834 -697 0
-5850 -5450 4125 0
877 -1764 5437 0
-5718 4213 -9134 0
-3124 6844 8989 0
-8361 -2418 -4327 0
5037 5768 -4290 0
6184 -7741 -9610 0
-265 -2494 1063 0
-4015 -2065 8357 0
-1517 2318 8621 0
3366 -9128 -6610 0
-6031 -6375 5416 0
-6680 -1006 6530 0
1407 1784 -217 0
-105 -6092 -2541 0
-6953 1078 -2101 0
1266 -7273 -9534 0
827 8018 -6810 0
-1742 3408 -9176 0
-2796 -3458 -9764 0
4579 -4446 5141 0
3902 -7283 9037 0
-3865 8479 3693 0
6241 4276 1780 0
3372 -5138 -7138 0
-971 1279 7392 0
-3948 9762 1452 0
-7887 4199 994 0
-2110 -649 -9895 0
7570 1194 5755 0
-4318 2226 2766 0
-9815 4413 -9418 0
-1627 3888 9335 0
2829 2770 -9764 0
-3966 -2162 -6261 0
-1295 6369 -3466 0
4653 1918 2784 0
5588 -1641 -3496 0
-6263 -6419 3477 0
1685 -5852 317 0
-4024 7142 -1620 0
7565 2192 -5574 0
17 8591 9846 0
-7499 2022 -6560 0
3894 270 -9384 0
-8291 9253 -7579 0
3766 4663 5143 0
-5456 -8994 4455 0
4843 -6472 -5010 0
524 7314 -8474 0
1338 2372 976 0
293 -5941 -3057 0
-7456 5355 6944 0
-6097 7709 65 0
3125 -9914 -9847 0
-3620 -1638 -2585 0
6184 -8785 -8585 0
8144 -4543 -6064 0
-8962 -995 7055 0
-9918 -1476 7062 0
7321 -6716 -2277 0
253 22 -9512 0
3799 -5928 -7345 0
1606 -6991 -1022 0
-5089 6084 2817 0
5048 -3118 -4350 0
-5740 -9568 3766 0
-6213 -6343 4915 0
-1099 2763 -410 0
-6193 -341 -6041 0
4085 -451 519 0
804 -7124 2191 0
7413 7349 -7438 0
3588 -5080 1806 0
825 -398 -2333 0
1607 1758 -7954 0
-4219 -1311 3330 0
-9490 -2676 2748 0
-6602 -1396 9249 0
4614 -2682 7114 0
-8437 5421 2065 0
7155 -3712 -1851 0
-7768 -8323 -9016 0
-884 -9607 9638 0
-6482 -801 -3680 0
-9266 -4453 3562 0
-745 -8236 -3571 0
-3638 -9785 -2310 0
-4373 -5205 -7741 0
971 -3064 -1946 0
-6801 9582 -7252 0
-5760 -5225 3418 0
4081 583 2340 0
283 5090 -5429 0
-236 -1218 -5605 0
-1733 -1251 5447 0
8073 5143 -5540 0
4791 -1666 3505 0
7656 1637 8422 0
-2027 3002 -1948 0
-7753 87 -45 0
3511 4726 1515 0
-6851 7627 8203 0
8047 3489 -411 0
8341 9644 -2685 0
-9806 -6404 4328 0
3213 5148 -8240 0
-6429 -7835 -6885 0
-59 3723 -7549 0
-48 6335 -7387 0
-1876 3237 -3470 0
5525 4912 -1004 0
-5581 -290 536 0
-9880 7555 -7237 0
7989 -6181 -1071 0
3870 5006 -4446 0
-6033 6131 -5177 0
4044 -3683 -7853 0
9718 6231 -6305 0
-6965 -2115 -4035 0
-7665 6046 3762 0
-3805 3819 8693 0
-7470 -5565 7533 0
4284 7397 5807 0
-9566 -184 -4636 0
-9765 -1592 4894 0
-6543 2828 2463 0
-8087 8229 7967 0
3380 4680 2033 0
9234 3070 3190 0
6144 -1402 -1012 0
7927 -2416 -857 0
6266 -8644 -3064 0
-5360 -3931 8254 0
691 -7369 -3961 0
4133 -2184 -1333 0
8500 -575 8974 0
-7895 2470 -3610 0
-5297 -7506 7335 0
-9571 -9846 5991 0
-7918 1600 9316 0
-6534 -7044 7585 0
3395 47 4563 0
-8236 4102 -2807 0
1067 7268 -8093 0
9684 7409 -5122 0
1204 -8378 5503 0
3788 2582 1614 0
-1611 3270 2335 0
-5761 -9599 5361 0
-8648 5487 -3263 0
5895 -8645 -6399 0
-1661 -964 -6355 0
4522 -8929 5674 0
-4598 -7081 -9823 0
-3687 6139 2795 0
6906 -9888 -4467 0
-6985 -6212 3781 0
7274 4704 -3585 0
2988 513 1701 0
2548 -3090 -282 0
-1875 4328 -1392 0
6918 -9245 9217 0
5544 -3885 -1824 0
3236 1535 -3216 0
9628 -7756 5636 0
4523 -9441 402 0
8156 6421 -2721 0
-7007 5979 9224 0
-5921 -5941 -5450 0
8834 -2481 -8330 0
-5738 4823 -294 0
2530 -6118 1382 0
7459 -9524 8212 0
8794 2146 -9964 0
3742 1194 -4864 0
7008 3437 9197 0
-6112 -6545 -8332 0
-2857 9167 7738 0
-881 8906 5935 0
-9651 7069 -8190 0
3669 -4083 -8696 0
5144 -5318 -8162 0
7324 8037 9013 0
-7697 -3804 -5185 0
-4950 5704 9675 0
8059 -1927 -5581 0
3757 9474 9071 0
2811 -6072 3441 0
782 -6158 3702 0
-3994 668 9212 0
5212 -9036 203 0
5289 5103 -5906 0
866 7405 4701 0
7455 4427 5445 0
7863 3977 -6454 0
-2041 -7014 1655 0
-955 -368 4266 0
5271 -8173 -4230 0
-7890 -703 -4185 0
9308 6418 -8118 0
-8940 5785 2920 0
-2929 2687 -6713 0
2227 9617 -2782 0
-6190 -1443 3447 0
2650 4418 3299 0
5677 5817 1840 0
-2049 -3514 -1569 0
6540 4982 -2763 0
1023 -8452 -9810 0
-7888 -4998 5916 0
4531 -7656 -8898 0
-6085 2477 5841 0
3352 -7314 3398 0
2914 -5067 2194 0
-4520 8139 2572 0
1189 2823 9040 0
-4463 -3737 -9916 0
-8926 -7050 -1288 0
6471 2973 -359 0
-1284 -6284 7048 0
3212 3926 -163 0
-6950 -827 8477 0
8214 6051 9672 0
8435 1105 -2266 0
-5933 -5818 8647 0
-8915 -1109 5559 0
-2759 8602 3334 0
-311 -9830 7015 0
-984 -7543 -937 0
3146 703 -4505 0
7457 10000 -9944 0
-2234 7947 -1731 0
2469 4800 -3989 0
-6241 -8902 8237 0
6172 -3765 6891 0
-490 5776 9779 0
1752 -4642 7408 0
-3804 5742 6776 0
1181 -6717 -5961 0
-5173 207 -1105 0
-8857 8130 -3681 0
1159 -9622 -6048 0
-7299 4786 -3684 0
-2045 6947 -6799 0
8647 -3833 -6730 0
1808 -1505 5540 0
5572 907 -5041 0
-5911 -6968 -8033 0
3930 2612 -674 0
-1966 607 -9399 0
9585 5147 -5491 0
-2288 -3 -6781 0
4059 -5483 -1767 0
7389 6100 -6133 0
-6242 9954 2777 0
-3509 -9846 3568 0
8499 -5595 5865 0
8431 309 1578 0
9114 7350 2920 0
-5588 -2645 -3472 0
5537 -5822 7068 0
9165 8234 -7081 0
1219 1369 -4913 0
7677 674 1907 0
-10000 1203 3980 0
6402 8462 2670 0
8259 5578 -2337 0
-3190 -6074 -9663 0
4211 -8436 8042 0
-7679 5071 7828 0
-867 635 -9621 0
-1349 3132 4760 0
-4505 -5461 6094 0
-6253 4671 3131 0
-5851 -4877 7359 0
-4182 3756 80 0
-913 -4421 -774 0
4438 -2391 -6050 0
-3534 139 -3876 0
3334 -1792 1818 0
-861 190 -2425 0
-2337 6562 -550 0
3030 -9575 7700 0
-4501 8831 -4474 0
7675 2696 -4799 0
-3544 1992 9843 0
-7623 550 9368 0
7242 -5774 -897 0
-3651 4392 -3798 0
-6908 3912 -1006 0
1566 -4916 -7549 0
-323 -3643 9870 0
-1022 -8645 -3157 0
-5810 4903 -2977 0
-3236 -4255 -3427 0
-543 -5133 -5090 0
793 3429 1692 0
9962 -7481 -8209 0
-5749 5011 -7635 0
3511 -2010 3591 0
2159 -8185 -8288 0
-953 -9400 -8995 0
9042 6414 -3366 0
6692 -1629 -6509 0
8174 2197 -6453 0
6087 -9989 4984 0
4135 521 297 0
5776 3451 -1138 0
1237 -5589 -5237 0
-1922 7919 3040 0
2524 9014 3995 0
5236 -1772 -7805 0
5482 3092 83 0
-9568 -9700 -593 0
4472 -7061 -7156 0
7792 972 2982 0
4527 -5564 1491 0
8533 -2082 6724 0
18 9976 -2896 0
-678 525 -2638 0
3631 902 130 0
1154 -7864 8645 0
-1338 -8215 2955 0
9916 237 -2592 0
-6895 4346 5965 0
-3790 9317 1049 0
-8746 1428 -9792 0
1976 -5272 7593 0
-9411 -3693 9151 0
499 -2655 2636 0
-8503 1257 6075 0
-9929 -2866 -2560 0
582 -5435 6082 0
-6885 -1156 -6170 0
3954 6640 -6244 0
-7603 3814 3281 0
5045 -1013 5403 0
-1017 629 -7824 0
-99 -5717 9628 0
-1497 -3148 6926 0
-6783 -6642 5791 0
5721 3437 9338 0
-3878 1123 -5336 0
2845 1106 2735 0
7870 -3532 -5408 0
7334 6962 6902 0
5710 6858 6307 0
7945 5897 -6107 0
1205 -3541 6382 0
-191 -3607 5419 0
3365 -2764 9543 0
-8282 8150 -2069 0
6733 6594 -4002 0
6538 3261 6315 0
-6015 -9469 4405 0
-88 -3402 -7173 0
173 -5662 -1833 0
2300 -9553 -6819 0
7051 -7308 5648 0
-8557 -8346 -6123 0
8409 -918 -4719 0
-6090 -1699 3596 0
5696 8619 -1115 0
-1899 -8956 -310 0
699 2273 -4053 0
4339 5075 -8791 0
-2170 350 -2277 0
196 3294 1095 0
-8530 7137 -5503 0
613 -8077 -863 0
6150 6860 -5718 0
6682 -9366 3982 0
7789 -5131 -4188 0
4582 -5075 -3166 0
5749 3579 -3871 0
3449 -3512 -8568 0
-7674 2873 -1076 0
7829 -250 2 0
4144 -8773 704 0
-7339 5549 9885 0
696 -9391 7137 0
-1590 -3772 -2527 0
-619 -8035 2377 0
-9776 4401 -4204 0
504 6715 6596 0
594 2089 7269 0
7879 2363 9814 0
-3196 2845 -8994 0
-4981 1764 -36 0
-8421 -1569 -5013 0
-3502 -5526 -5016 0
1927 -9917 -4279 0
2191 -6676 1414 0
5446 -9445 -126 0
9711 -3366 3410 0
3008 -7420 -7838 0
-4483 -8436 -1126 0
-4259 -2572 8241 0
4266 9329 9829 0
-4831 -7808 -1316 0
-9706 -6818 8066 0
-6557 2018 -2886 0
-9267 4587 -7772 0
8869 6813 -3963 0
-5717 8294 -926 0
2972 -8262 -7604 0
1603 6147 -854 0
2979 -5166 -434 0
8011 -1469 -9321 0
2598 -1329 3333 0
6862 400 -3442 0
-3307 5489 -1513 0
8620 -1745 4953 0
-3069 -2873 589 0
3778 5079 5087 0
4463 -9475 5837 0
-685 9399 1774 0
2725 -8814 -7198 0
3120 2332 3424 0
-2896 1936 -7662 0
-3083 5132 -394 0
8218 9407 8396 0
7525 8496 -4450 0
-1894 -552 563 0
-8913 -8838 -1738 0
1197 5486 7168 0
9180 -395 -2235 0
-9564 1565 -7511 0
-1577 -7802 -8420 0
-483 -7331 5822 0
-5791 146 -5657 0
4924 501 -5996 0
-9958 -6693 8899 0
5662 -8288 2432 0
-5092 -2812 -1822 0
5017 -9870 6455 0
-8267 -4173 6346 0
9233 -6163 3248 0
700 -6312 5216 0
-4870 5766 4227 0
3518 194 -1509 0
-218 -8603 -6295 0
-1522 1077 5167 0
-4465 -5542 -4891 0
-4625 -2295 4879 0
-3463 8735 -3300 0
434 2332 7074 0
3213 -5980 -2521 0
-9169 7928 -9961 0
-169 -9900 7510 0
627 1300 2122 0
-313 -9404 7766 0
-5607 -8660 3515 0
5721 3744 164 0
5188 8401 7754 0
-486 3537 -2960 0
-3845 -1748 -3177 0
-8905 -8207 397 0
7584 -3966 -7037 0
3822 6678 -8446 0
4464 5702 6097 0
5543 8468 7988 0
-7790 5669 8496 0
50 -1484 -6499 0
-5751 -5111 7988 0
-787 2688 1494 0
4178 -4197 3699 0
3135 7726 4919 0
1899 9386 -1397 0
-3691 -4803 -9161 0
-2634 7296 8805 0
518 -5883 1543 0
7046 9608 9537 0
4371 9350 -5913 0
-4720 4565 -4662 0
-3959 7682 2720 0
8808 -2702 203 0
2621 9531 2868 0
1445 4507 -2279 0
4628 7345 1558 0
-3688 -9501 7155 0
8442 -3759 -5424 0
-1786 -7638 -2682 0
-4993 -7921 2853 0
8024 5040 -790 0
8266 -4400 1285 0
8558 -9328 867 0
-8302 9117 -2528 0
5606 -4758 -1839 0
9711 8009 110 0
5458 -4990 2555 0
-2251 -3283 3597 0
-7198 2646 -5001 0
5815 3125 -4488 0
6516 -4915 -1729 0
8606 -9231 1150 0
5852 3029 -7056 0
9451 3276 -9825 0
6923 -5614 9749 0
4782 -9498 5361 0
-980 7524 5147 0
-8599 -4271 576 0
-6524 -7866 -3892 0
-8648 4557 -5015 0
9037 -458 5136 0
-5178 8540 4691 0
-5319 -3162 -9123 0
4964 -5715 5330 0
-7532 4057 -422 0
128 -2042 -728 0
-123 -4860 -1846 0
-5207 1802 -7615 0
-3761 -6682 5914 0
6881 -7171 -4106 0
5551 4347 -3001 0
2308 -6166 3604 0
-159 1229 9880 0
-7315 -7997 8794 0
-1138 825 -7803 0
8578 6659 1874 0
-5847 -3823 9344 0
6334 -322 -745 0
3610 3027 9064 0
8208 -4807 8993 0
1978 -5553 2677 0
-6450 5952 -5492 0
694 512 514 0
-8676 181 -2067 0
-9964 -1816 -7505 0
-9503 487 -2833 0
-6363 4790 -5261 0
-4660 7975 -2988 0
8455 -1912 -496 0
-7170 -5358 -7304 0
-2738 3213 2947 0
-4555 2127 5188 0
-3989 3336 3784 0
-2389 3455 -9748 0
-1300 -3810 7001 0
4750 -6895 -188 0
-3054 6715 -3789 0
146 4353 3532 0
-4154 -1744 -1959 0
3893 5104 -212 0
-1146 -3668 5853 0
-8093 5528 4923 0
9486 -2624 -1003 0
5122 -9804 -230 0
-3658 7755 1816 0
-3437 -1446 3775 0
5213 -5183 -4095 0
-8858 4223 -3873 0
6740 -4529 3867 0
-1721 6503 570 0
4470 -9076 -7475 0
2953 3306 7984 0
4682 -2039 1796 0
6178 -9956 4233 0
-108 9026 -4035 0
-6626 -2042 3867 0
-2496 5746 -9460 0
5369 5639 -5843 0
-4719 3125 -805 0
677 3203 -8724 0
5456 9962 6673 0
-3802 -9005 -9872 0
-2230 4601 6169 0
2976 839 -3461 0
-5828 -6895 -7859 0
-8727 -9691 -3019 0
5234 -8322 -3463 0
1404 1740 8769 0
-5094 5541 -8055 0
7659 -3605 4003 0
7343 8647 -4988 0
-3621 -235 2557 0
-4198 -1676 3373 0
-2557 -7409 3427 0
3710 1636 6633 0
7941 7769 3674 0
3066 4796 5887 0
-4175 -5561 450 0
4222 6843 2972 0
-966 1971 -4364 0
9166 -5873 -4193 0
930 8102 3172 0
-5179 8519 -673 0
-3087 -7560 -4037 0
5077 8564 -1251 0
-3464 -6594 -5755 0
8389 1035 5973 0
3335 502 23 0
6574 -9248 -1976 0
8317 4986 -2646 0
-9956 -5786 4212 0
9702 -4703 -1135 0
9490 4356 -1855 0
-2343 9327 -5991 0
2689 8112 452 0
3425 -3546 -2872 0
8194 -8041 -3014 0
-182 -300 9739 0
-724 9958 9433 0
-7222 4009 2031 0
-9049 7408 -8559 0
-102 -7255 2637 0
-7064 -6369 -8291 0
-7562 -3464 8829 0
-2233 -6496 3572 0
5996 -1037 1565 0
-7607 4914 3942 0
-3012 -9359 5014 0
2059 -7833 -166 0
1610 4193 -7617 0
5929 3174 54 0
-6890 9494 3902 0
-4270 -2234 -3638 0
9262 -4397 -2004 0
5829 -869 -3968 0
-4378 7103 -9949 0
-6901 4540 -6367 0
7730 9008 -7731 0
9901 -9910 -9491 0
-5043 -7976 -3729 0
3461 1588 3790 0
9950 -3918 2675 0
3111 -2656 8034 0
-3551 5604 5093 0
-9149 -8448 -6898 0
-3208 -8481 -3844 0
-8504 -6875 257 0
423 9335 2046 0
-4169 -2683 3719 0
8876 -2708 -8819 0
6382 -7506 5563 0
-3622 1312 -6108 0
9489 4558 -5314 0
9626 1182 1252 0
-9605 -3768 9666 0
-8874 -8969 -289 0
847 -6290 4101 0
-6266 6095 -9278 0
-3304 2404 4757 0
-2906 4846 -8453 0
6464 760 -9137 0
-9540 6971 5915 0
-7372 2255 -6272 0
4757 -9419 893 0
-9921 -1553 810 0
-543 9723 3671 0
-1360 -6645 -9991 0
-4542 -9339 2078 0
6646 -799 4955 0
-9857 -4178 5208 0
-1673 1479 -8505 0
8383 -2116 6697 0
-8539 5504 -8261 0
1350 6053 5117 0
8634 -4486 -5845 0
280 2364 -9873 0
7060 2411 -7464 0
-7283 -3426 3360 0
-5526 -7717 -1209 0
-3817 -5812 -7757 0
2441 -2717 -3489 0
6303 1314 -2869 0
-2778 1362 -3318 0
-1607 7865 9071 0
8348 -7314 2134 0
-3426 -6529 5092 0
-1107 -4491 -1601 0
-8852 -821 -1267 0
-5392 4366 -8579 0
5886 -4481 -3261 0
7579 -9427 8417 0
-651 3735 5134 0
5270 -5521 9087 0
-9326 6146 -2290 0
-2084 -301 -7420 0
-6653 7047 4565 0
8528 179 485 0
-9127 1586 3276 0
2329 -3886 -8944 0
2865 5316 -9237 0
3438 -4628 4354 0
-1085 -9647 -950 0
5801 -6531 -6036 0
9962 4819 713 0
4018 943 -1010 0
8276 -5604 8411 0
-9398 -6427 -7609 0
984 -5232 5138 0
-1476 9297 3773 0
-8244 -6435 -1167 0
461 -2724 6135 0
6209 8909 1497 0
-4812 -5000 3978 0
6704 -1534 -6009 0
9662 7610 -5881 0
-8125 5669 2153 0
-2698 -1890 -9994 0
7137 -318 -4253 0
1404 -5201 -2167 0
1421 1046 8419 0
2842 -6157 6144 0
4476 3237 -5593 0
9954 4616 7273 0
6446 -7267 -8454 0
-3011 4728 -249 0
-3479 7269 1921 0
8141 5100 9119 0
4878 7972 -6980 0
-5484 -4564 7694 0
-4892 -221 4562 0
-8655 -7840 8824 0
9556 339 4184 0
-8048 -6109 9301 0
3853 -7086 -8979 0
-6845 1709 9515 0
255 -3445 8813 0
-9517 9264 3111 0
-7528 -306 -9829 0
-4891 3748 -1290 0
-8774 6077 -8930 0
-8103 304 -9211 0
-5281 170 -9448 0
-9678 2114 -1505 0
-2172 -4907 8859 0
-6814 8854 -4770 0
8562 -1233 -6352 0
-3209 4558 5605 0
-7214 -3880 3706 0
-4718 8553 -9168 0
-7262 -2881 817 0
-54 -206 8287 0
-6426 5670 -7571 0
3157 -7027 3269 0
-7095 9183 6498 0
-8960 8195 473 0
1253 -537 -3979 0
-5864 7477 6438 0
8062 -6577 3814 0
-2789 -9730 5245 0
1889 -9103 7807 0
-1980 -7423 -5047 0
-115 -5944 -1909 0
-334 -2567 -8261 0
-7704 -3100 6570 0
3882 -7230 2408 0
-7483 6453 -4187 0
-303 -4619 482 0
-1751 -482 3438 0
-5793 3662 428 0
5974 -9412 -673 0
-5049 -8509 -4490 0
4343 3351 -9894 0
-7077 -1005 9020 0
-2081 4891 -3742 0
-9140 8301 6325 0
1090 9559 8477 0
-7373 3763 -4684 0
4186 6832 -1821 0
-7692 5548 8558 0
-5820 -6740 4371 0
-7852 -2914 3247 0
-7593 -3867 4260 0
7624 -6651 -8908 0
8858 2299 -8526 0
-8990 6109 1189 0
-9665 2095 -74 0
6446 -5144 4762 0
5365 3132 8966 0
4387 -8556 6737 0
-8940 -3073 -2312 0
-1062 702 5161 0
877 -6907 2232 0
9368 1425 -1303 0
297 5327 3750 0
5558 6329 4866 0
60 6821 8621 0
-2462 3824 725 0
4254 -5514 4736 0
3201 -1910 4217 0
3527 -9269 518 0
6396 9363 -3675 0
2257 4794 -94 0
8830 -3400 -6748 0
-1573 -8365 -695 0
7040 978 -873 0
-6191 8461 -9504 0
-311 6885 -91 0
3477 -805 2202 0
-7535 8771 8879 0
-2786 -9074 -5800 0
-6166 8677 -3578 0
2271 6796 5463 0
-3785 -986 1607 0
-1994 478 -1533 0
-5466 1210 3987 0
5006 2035 6501 0
-5243 8017 -1015 0
2212 557 9775 0
1664 1561 7966 0
-5570 -1066 -502 0
1635 -4167 8116 0
2989 2357 -688 0
9129 -8829 -2083 0
-1913 3846 -7308 0
752 1184 6367 0
1245 8636 9802 0
4125 -8111 -1747 0
-4938 -7245 1746 0
1863 213 1455 0
7013 -3904 7788 0
-3261 1133 -5931 0
4868 276 -7867 0
4615 -8724 7697 0
1055 -49 1434 0
-1545 5205 -9834 0
-403 -3624 -4828 0
-7977 7424 -291 0
-7092 -679 -3739 0
-4257 -2345 -4779 0
-7532 2830 -9164 0
-1560 -5527 2666 0
-9993 -2546 -3353 0
-5509 -1360 64 0
6399 -6689 -8048 0
-3867 866 2598 0
1321 1946 1814 0
2358 -1245 -2812 0
4995 -7486 -1826 0
8733 -8771 -2559 0
2036 -241 5473 0
-8288 3157 -2420 0
5632 1447 -7328 0
-1995 -6812 -4549 0
484 2116 -4583 0
370 -1933 3638 0
-8 9072 -578 0
-581 9381 6469 0
-8071 3087 -4150 0
-5340 -1893 7858 0
-6605 5592 -6755 0
-4168 -9459 4711 0
3850 8855 -7668 0
633 -4136 8584 0
1280 -3030 -7136 0
-4443 -5342 -8933 0
-485 4519 -1667 0
1852 7625 -6339 0
4857 -2217 -4638 0
-6139 -2223 5467 0
-80 8879 2459 0
-3460 5436 4176 0
7326 -596 4306 0
-3280 4668 3244 0
4786 7092 -8097 0
9357 -1719 9806 0
-1859 4502 2664 0
6062 4698 6120 0
-4504 -5465 -547 0
-2026 2134 8056 0
2736 -1921 4226 0
589 6031 -3356 0
9016 -3351 2064 0
-5046 -2217 3969 0
-7452 4554 -2584 0
-2484 5420 -51 0
9824 8755 1536 0
9111 4530 7010 0
2934 -2032 -8165 0
437 -3600 -6368 0
9789 4748 -3888 0
-8765 4145 -4013 0
-2118 -7534 2258 0
-1283 -8966 -2773 0
6350 -4688 -3797 0
6779 552 -142 0
1432 8016 457 0
21 -1075 9575 0
9532 -1162 -5520 0
6967 -6844 962 0
2075 5500 -339 0
438 1854 1061 0
2761 -1563 7516 0
409 1285 2573 0
-5481 -4762 9819 0
-8997 -7281 -2665 0
7453 -1461 -8532 0
-3826 4457 -2867 0
-9928 -3743 7163 0
-4091 5030 -1731 0
-5800 -3915 -8241 0
-7961 -5461 7385 0
-8619 5545 5447 0
9362 -3625 9311 0
1680 -8489 3080 0
1883 4363 9400 0
-3732 -13 6066 0
-380 -2759 -5656 0
-6843 1237 -1055 0
6978 3910 8856 0
9775 -8375 7963 0
5298 7492 5396 0
-3435 -9620 -4524 0
1023 -2185 3123 0
-1181 -2626 -3009 0
2382 -5829 291 0
7240 2829 -8832 0
3480 -8540 1263 0
8605 -1289 6628 0
-9519 -521 -6546 0
-9267 -7746 8697 0
-740 8781 9963 0
-2952 1224 9108 0
9154 2686 7506 0
-3708 -8059 -4511 0
-9069 9753 -4048 0
264 411 -97 0
9351 -9398 -3349 0
1260 5092 1392 0
4523 1542 -493 0
9603 -1700 9700 0
-5016 -176 -2286 0
256 742 6310 0
-9100 -6897 -9956 0
-4910 6731 9082 0
5819 -8347 -1931 0
-3291 7638 2803 0
9522 1797 -7568 0
-9330 7459 -5073 0
-7925 -3890 890 0
9501 -1401 7431 0
7358 1977 -8578 0
3548 8717 2701 0
9008 -7742 -1200 0
6563 3947 232 0
7897 -7960 -8835 0
-9032 2810 937 0
-4397 2014 -5103 0
-1543 9048 -2963 0
-1250 3908 5903 0
-8256 4758 -9625 0
690 -9077 8409 0
-2377 -6821 -9287 0
370 1167 -9709 0
7367 -9874 3012 0
1935 -4766 -69 0
-574 7275 -3987 0
-5416 -1406 -7201 0
-9934 7370 -3135 0
-6510 4645 -179 0
1232 -4227 -8948 0
-4361 -3474 -6415 0
1911 5835 5294 0
7428 -5023 7685 0
-5749 -2485 8591 0
6708 8786 -8829 0
-5469 -8375 3153 0
-3561 -950 3180 0
-218 4499 2010 0
2558 -3458 3038 0
5994 -2574 -4594 0
8088 -5735 -6519 0
-9224 7325 -1700 0
-3726 189 -8393 0
5677 6505 -3293 0
11 4655 8891 0
5483 2304 -1210 0
499 5894 5621 0
7297 1003 -2319 0
4441 -7755 5748 0
-2311 3507 -8000 0
-1903 -5297 5625 0
7055 4564 8139 0
-3876 -1333 2623 0
9011 8781 -9358 0
-6615 2825 -2397 0
8699 8880 6140 0
636 6980 -633 0
4630 -1258 8938 0
-6279 -7759 2712 0
-475 3898 8558 0
6551 877 -6586 0
7608 5642 3970 0
7003 789 -4726 0
-2590 1165 5479 0
943 774 362 0
-535 9162 -1832 0
7338 811 1153 0
-7123 3619 -5642 0
-6521 -641 6961 0
-5196 22 618 0
-8839 1782 48 0
3541 -9547 -1317 0
2446 -4355 5325 0
1431 233 -5312 0
-2396 -9067 6261 0
-9358 4291 -9190 0
-9056 -3014 -5647 0
5278 -6190 7765 0
-2335 -7163 -2819 0
-9439 -3643 -4832 0
5936 -3663 -9337 0
3151 2988 2512 0
-8672 8486 5299 0
8315 -6593 -6514 0
-740 4635 6669 0
-7682 5980 -6058 0
4521 -819 -5114 0
7075 -5161 -7366 0
5273 -6582 -2191 0
7786 -1935 2119 0
-7700 -8968 9289 0
-5689 7082 345 0
-8294 7927 7031 0
1105 6997 -7878 0
-4935 1900 -6293 0
4570 8316 786 0
-4595 -5509 -1521 0
4744 9139 7509 0
9463 3276 -3278 0
-3170 -7201 -3188 0
848 -4647 -1513 0
7571 -5123 4831 0
1198 7073 305 0
-5522 2496 -4906 0
7404 -4207 -3491 0
7747 1521 8988 0
-1609 7626 1928 0
-9410 2143 -2320 0
-6863 4455 1679 0
-6015 8036 5133 0
-3077 -427 -5284 0
-7177 -4086 -8088 0
3778 -1784 9740 0
8054 -7967 -5873 0
9094 9490 -4538 0
7663 5020 -1094 0
-4313 -3685 4545 0
-666 -8325 -9769 0
-8313 -282 -5389 0
5447 4321 9301 0
6785 -490 2774 0
-7779 1297 9272 0
1620 -547 -2452 0
7917 5073 7056 0
-4016 4955 7500 0
1870 7089 7934 0
-5582 -84 9011 0
-6963 -1361 -1899 0
-9372 1657 -5647 0
-7717 7090 -5074 0
6279 5136 -8388 0
-9683 5786 497 0
9218 4432 -9594 0
7434 -7323 2401 0
-6236 3988 -5678 0
1863 1532 3483 0
-1484 -4290 -5973 0
2455 1876 185 0
9313 3496 -9726 0
-2619 1308 4305 0
-8774 -6339 -86 0
-8370 8103 3929 0
7155 2272 3075 0
2934 7929 -3297 0
1918 -4045 -3095 0
7160 -5440 6295 0
3466 -4273 -3799 0
-4911 4972 -2232 0
6065 4258 -11 0
-3166 -130 -6744 0
8011 118 -3159 0
6922 5775 -7753 0
9819 -9679 -7911 0
-7404 3612 -5045 0
-4080 -9419 3618 0
73 7361 4562 0
-9064 -1556 -8748 0
-9406 -7028 -4180 0
5535 2369 -9323 0
6820 -4040 9464 0
-7972 9620 4665 0
6588 732 -8509 0
5778 -1110 7936 0
1207 4363 -1570 0
-5186 -4668 -8642 0
7382 3577 8475 0
-3903 9245 -4471 0
-4902 -3146 5901 0
-1452 -2242 -3419 0
-6499 -8561 6308 0
-441 -3852 5300 0
2205 9498 5208 0
-4619 -8310 9565 0
-3240 -846 5578 0
353 -242 -9355 0
-3406 -1569 -1209 0
5307 -4856 -6428 0
4664 9639 1772 0
1916 9886 -3284 0
-8042 -7709 -7334 0
8787 3856 8763 0
6347 9085 -2055 0
2235 6231 174 0
-4342 6780 -2139 0
6596 -2164 -698 0
-4622 -3718 2849 0
8053 8886 -5886 0
481 3211 3563 0
3533 -6637 -2819 0
-6462 -7007 384 0
-1127 -8478 7479 0
6503 -3669 -2811 0
5869 -696 -545 0
-5247 6842 -7152 0
1771 -6919 9399 0
-390 8264 -6939 0
-4145 -7970 -1119 0
1412 80 4588 0
108 -9248 -1703 0
-159 -5544 -8835 0
7853 3695 1179 0
-2908 2025 6455 0
6024 3361 1971 0
9126 1446 -54 0
-4482 -4038 -200 0
-2845 7367 1541 0
-9259 5765 8524 0
3127 -4915 -19 0
-5073 -3843 -152 0
-3407 6590 7833 0
-1506 8452 -4996 0
-6716 -8093 -7392 0
-3822 8901 3764 0
7683 -7190 -2763 0
8056 -8189 6141 0
9573 -9382 8495 0
1534 -8991 -3457 0
2067 6526 5218 0
-3271 2815 -4041 0
7163 -8076 7151 0
554 -3181 6329 0
1342 8682 -4769 0
-5097 -1535 -5893 0
4590 2073 7427 0
5990 -5090 -1849 0
3075 -5362 7765 0
7610 -3092 5838 0
-7039 5220 138 0
-8146 -1094 -2642 0
124 -4979 -6744 0
3249 9989 -158 0
4621 -6305 9850 0
6627 -3783 -1546 0
5900 4570 -80 0
4848 9372 -6191 0
-574 -7545 -7659 0
-3308 -3916 3945 0
-3741 -4523 5673 0
-802 -9710 4091 0
-1299 783 7265 0
7754 -2907 -1563 0
4443 -643 9929 0
9501 -7927 -1606 0
2542 5602 9804 0
-880 7774 6095 0
-7014 208 8296 0
-4048 -3491 98 0
7676 -9838 -7476 0
-1493 9949 682 0
8174 -8397 4372 0
9331 8729 7627 0
949 -637 -6970 0
3635 -6791 6053 0
-5835 -2916 -4361 0
-3700 -7178 -22 0
-2052 -5256 4658 0
-9536 -7848 4612 0
-8589 1491 -2281 0
2434 -5581 4841 0
-1675 5891 1068 0
-2904 -3424 4756 0
-2982 -3695 6836 0
9261 9845 -3669 0
4541 -5411 -2250 0
-2699 8896 4953 0
-3106 -1370 2426 0
8395 963 3978 0
5126 6152 6183 0
-3296 -3205 -2605 0
2475 6151 -5312 0
-1040 4184 2858 0
-1532 8297 -5738 0
1434 -1545 -5611 0
6418 6507 4745 0
-6409 -2655 -1062 0
4378 4641 3042 0
5774 -6327 3399 0
1747 2753 3105 0
-2389 2659 -8143 0
4379 -2150 6559 0
-4165 2632 -9645 0
1324 6463 -7036 0
2738 -6176 3148 0
4352 -761 -2080 0
-272 -985 8372 0
1515 9859 3341 0
-3351 -948 6618 0
-9157 9872 6443 0
7130 3730 -4197 0
2279 5620 7120 0
4410 1543 -3043 0
4528 -1720 -3497 0
6168 -2733 -4096 0
-4883 -8344 517 0
6536 5562 -115 0
-7792 6853 -4881 0
-2477 5022 -962 0
8342 -6458 8571 0
4876 -7209 8788 0
3789 -8203 9527 0
4098 6146 -662 0
-7744 -8082 263 0
-6865 -5667 8207 0
2807 3861 9022 0
3705 7975 6346 0
4243 -7681 -7811 0
-7113 -9272 -4009 0
-2321 63 -8201 0
-9261 -8946 2835 0
4574 -7146 -2749 0
-7127 9692 5311 0
-4553 240 1781 0
3400 1519 -4169 0
-1217 2827 8773 0
7207 -312 109 0
2230 -4542 4930 0
7432 8109 960 0
535 6401 3564 0
7526 -6224 -1780 0
-8787 -7311 -2180 0
-7953 -4808 7597 0
9927 -3021 5328 0
6957 -1179 5545 0
-3193 4437 9607 0
-846 -9783 8210 0
9827 -4874 -6899 0
3035 4433 1758 0
-2142 9116 6641 0
7032 -5579 7438 0
-5180 7996 4743 0
-455 -8773 2358 0
-8937 -1258 -9180 0
6598 -6334 -7152 0
-1803 -4070 -5318 0
6957 1418 -7290 0
5905 7277 -2422 0
337 6270 -7272 0
-505 6988 -1076 0
4354 2149 7110 0
-5900 8106 1752 0
-3542 -2209 -1568 0
-4850 -3434 8772 0
-9259 -7186 6357 0
-6668 -672 -690 0
343 -2398 5335 0
-5658 3727 2687 0
3575 -6388 -7124 0
-8052 6047 8053 0
-8744 -290 -3484 0
2773 9720 581 0
7724 2953 1623 0
-2792 2468 -8240 0
-3712 -3882 8530 0
-287 4112 -2593 0
-5859 6109 6509 0
-3694 -2227 -5559 0
93 -7183 -1710 0
2547 9198 6351 0
7447 7853 -219 0
9605 4996 4211 0
6296 7289 6388 0
-6011 9517 1232 0
-4877 -7886 -6261 0
5865 -1072 -8556 0
-9163 8447 -3942 0
-9533 -4741 -3738 0
9782 3414 -9892 0
-1034 -6882 -6588 0
-159 -3464 -1659 0
1078 -2844 -3129 0
7569 -2176 -2919 0
5064 3355 -8385 0
-5217 1651 -9639 0
-5935 1140 -2651 0
9533 9858 -3408 0
3841 -3224 -9492 0
-4623 -3302 5434 0
561 3872 1264 0
3323 1918 -157 0
-4485 -2291 -8462 0
405 -2742 5873 0
1402 6368 8090 0
7794 4489 8483 0
4428 4578 1085 0
3588 3393 -6420 0
-2196 1138 3766 0
-3517 9333 -7060 0
-4964 2217 8808 0
-9311 9391 3526 0
9866 4615 -1618 0
-5539 2139 -6081 0
5347 -5525 -8338 0
-446 6126 -2268 0
9882 4732 -6567 0
9055 4030 3094 0
4055 -5959 9587 0
2320 2600 -2699 0
-7101 2001 7150 0
-7447 -7897 9436 0
-7834 1942 4257 0
-500 3027 -2873 0
9552 5891 2926 0
-5428 -8471 -2165 0
-8976 -6305 -8229 0
-2591 -1329 1145 0
-8340 -8830 -2460 0
6279 9822 -889 0
-8277 7512 -1314 0
9963 9650 -3484 0
-6736 -1289 4601 0
-6518 6405 -6740 0
1034 -3929 -7146 0
8276 -7468 745 0
-8813 4745 8696 0
-3268 -3729 -6611 0
-6846 -1284 3527 0
4705 -3606 5162 0
-8720 2209 -3971 0
6262 1933 -1885 0
-5900 -2468 3867 0
-8793 3330 -9591 0
-3183 4014 5451 0
9992 1743 -3705 0
-1357 -4217 5833 0
2999 446 -9172 0
5054 -3227 2162 0
4954 3878 975 0
5263 -8616 -7244 0
5727 9441 -8848 0
-9363 5853 2106 0
-48 5547 -2110 0
-6622 7967 -6439 0
-6326 -1283 54 0
-1828 1704 -9364 0
-7524 -1791 3168 0
-7931 -1999 -4213 0
-3910 -7503 -7511 0
7932 5775 -4670 0
-2295 -6237 8132 0
-9652 -9000 6262 0
254 4316 7937 0
495 2030 3418 0
5134 2085 5016 0
4312 -4905 -3221 0
-198 -1684 4884 0
4929 -571 -8318 0
-7502 6954 -1589 0
-9380 8630 -9652 0
3803 4256 -5950 0
3291 -8775 -5555 0
6134 -3636 1799 0
7896 3091 2889 0
9090 9671 -2059 0
-2509 9839 -261 0
4831 7091 496 0
9597 -7605 2438 0
-146 3449 -9747 0
5474 -4217 6649 0
-4749 -9718 1755 0
-2623 4790 5354 0
-4960 -8501 276 0
6186 -2915 7925 0
3546 1400 9634 0
7875 9201 4209 0
826 7844 -1818 0
-5542 9712 -1010 0
-9835 -2262 9997 0
1626 -1402 -3449 0
5508 -4784 -4131 0
2300 9357 -8306 0
-2494 5830 -3820 0
-4975 503 -6398 0
5653 -708 8277 0
6048 -1627 -1597 0
-7539 -8671 368 0
-4682 -2292 8927 0
8672 -1101 -8107 0
-6301 1337 -5296 0
7238 -2409 2590 0
-3102 -5187 4680 0
-5662 9681 8 0
-6112 -7760 -2168 0
7290 -5511 7476 0
4460 1568 -9553 0
-2119 -7748 -5016 0
-4809 -754 7570 0
8153 -8804 -9773 0
6519 -7537 6775 0
4664 -1160 2041 0
-3578 -4407 -3788 0
-2531 1763 1560 0
-3126 6107 3191 0
-7609 -662 2833 0
-1639 -2376 -1217 0
2851 -2367 -7054 0
8650 1748 -4113 0
-5660 1467 9223 0
-8165 -2059 4611 0
8149 -8995 -2471 0
-6225 6172 609 0
3721 675 5002 0
7755 3924 -2176 0
1168 -8049 5067 0
4045 3284 4730 0
6729 -5399 2988 0
2341 1789 5769 0
8504 -9176 -1510 0
7476 8268 -6561 0
6315 -8629 6244 0
1513 3632 8993 0
7884 -5044 3452 0
-445 3795 -9492 0
-6770 7588 6383 0
-3102 6428 1583 0
8015 7456 -4330 0
1146 4883 -7636 0
5763 -8819 9326 0
2275 6125 5499 0
6949 3573 -6460 0
8320 -233 -7273 0
9989 -3537 9339 0
4412 -5063 -7691 0
409 -5523 -2721 0
8565 3266 -9958 0
783 4760 9745 0
5942 -1181 4563 0
9216 4838 3182 0
-7320 -5990 8916 0
-6302 1559 9939 0
1676 -4090 -7724 0
9484 3966 -1178 0
9165 -4634 2042 0
6423 -3724 -9918 0
-9165 -8725 -9628 0
-133 534 -9548 0
1440 5051 -7968 0
8733 4798 5329 0
-9195 -9571 1995 0
-8607 -986 6864 0
3555 -6410 -4752 0
1062 -251 -5035 0
7866 -8611 4917 0
1580 6834 162 0
9041 2320 -5100 0
-6240 5323 8028 0
-4853 1624 7302 0
7413 -2716 -4509 0
-9274 -2214 5755 0
7344 -5508 5241 0
4516 -4949 -3387 0
5890 688 -576 0
5790 3021 4202 0
-9852 3254 -4657 0
3776 1544 -527 0
-3032 -2658 -2211 0
-7987 -456 -5032 0
-4489 -5187 -7276 0
-8133 -7793 3256 0
-9448 -20 7309 0
-1079 -2725 -9118 0
-674 -1595 199 0
4181 -6855 1265 0
4567 7343 -1930 0
9653 3515 2008 0
-9629 2433 -6631 0
-7477 2117 8332 0
-5142 -9204 -8445 0
-1214 -6662 -3706 0
3653 8936 8104 0
-5467 -3597 -9999 0
-4296 1095 -4660 0
8144 -9095 9086 0
-4926 6588 9576 0
6162 9268 5524 0
4586 -1366 1322 0
4634 5179 3574 0
4892 -1885 -9657 0
3853 -5868 -2360 0
-4856 6149 -5924 0
4941 9432 -4639 0
2524 -2931 -820 0
307 -57 4050 0
9255 -9099 -8757 0
4482 -8696 -4747 0
-6022 -9408 4509 0
-9943 -2770 194 0
-2562 7032 8638 0
2433 4937 2237 0
-1178 7663 -5415 0
-1260 -8059 8155 0
1899 4666 -5094 0
774 -5458 2295 0
-177 -1194 -7231 0
4704 728 2297 0
6658 -8152 5347 0
-8038 8774 -7795 0
5947 -9460 4090 0
9231 6634 3564 0
3864 8955 397 0
-1167 -1055 -1806 0
-6133 9394 9520 0
-5593 2161 1090 0
-2789 9035 322 0
9033 6674 -5577 0
3106 -2519 4772 0
-7678 -8694 -2249 0
-8967 -8900 2926 0
-6837 -9270 -900 0
2063 9700 2498 0
3403 -3087 984 0
-6470 -7806 -6476 0
-2772 495 -1480 0
-2573 -6638 -1121 0
-8983 -4120 -165 0
8320 -9866 -9935 0
1698 -4475 -4518 0
-3145 -8382 4564 0
-6119 -2070 6241 0
8748 8011 -3164 0
-9575 572 -6637 0
7844 7787 8784 0
-1932 1120 8231 0
8009 3007 -2085 0
7835 8165 700 0
-1703 9202 -6639 0
6814 -3016 4472 0
5986 426 -2596 0
-6690 -5475 -7396 0
-7405 -5003 -5906 0
7517 -2232 7814 0
-6078 -9637 5344 0
-6628 8770 8965 0
6061 3449 3902 0
-5075 3276 4590 0
-3511 -2423 -2982 0
-4899 -6885 -9910 0
-5979 7598 -6130 0
1182 5021 -6639 0
-9603 -6727 -8245 0
6043 -3127 4778 0
3202 -129 -1359 0
-2818 -1836 -284 0
2579 -5147 3914 0
7484 3908 1277 0
-2167 -1380 6034 0
8945 -7541 6434 0
-5769 5284 -2484 0
2991 2019 9322 0
796 4476 8335 0
-2697 -316 -3596 0
-2213 -2982 -4363 0
-222 -771 9506 0
-738 527 4435 0
5470 -9103 1420 0
-8190 -4168 7248 0
2469 6739 -8355 0
2050 7824 -5542 0
77 -1564 1882 0
-5497 5626 3447 0
-8379 -6673 9991 0
-564 2846 4668 0
148 -2615 -378 0
5601 -8074 7187 0
7886 8710 4822 0
-4228 2351 -1003 0
-2986 -9187 3234 0
6308 4007 2546 0
3172 3245 -5540 0
-6394 6680 2105 0
-3179 -6520 -4696 0
-6421 -8016 -1989 0
6199 -7000 -364 0
7145 63 1787 0
-7896 8752 2716 0
-1402 514 -2908 0
3757 -5836 2780 0
3124 -2023 -3817 0
-5043 9277 -6274 0
-9277 -6450 950 0
-7924 4378 -6748 0
-2114 -3327 -4847 0
-5585 -2780 -624 0
2058 9485 -8021 0
9810 4246 5216 0
-1320 -2586 296 0
-4128 8403 5390 0
5724 -6853 5158 0
9977 -7957 3817 0
9995 -9112 171 0
-8920 2993 6451 0
7603 -4964 -2262 0
1882 -394 -3813 0
-6434 -3750 1266 0
145 -656 4782 0
8781 3614 5948 0
310 -3252 -8814 0
-5402 -57 2339 0
4197 -8225 9125 0
-6838 -1947 488 0
5469 2301 9595 0
-5786 -7193 8667 0
1228 -9683 7724 0
7618 7139 -1906 0
4541 -2526 -8606 0
6629 -2589 -4129 0
9217 8186 5953 0
-9558 5097 8959 0
-6623 -4074 8111 0
-8854 -8988 -472 0
2858 4511 8732 0
6254 1725 -7813 0
-7939 7317 -9985 0
-762 -9523 -8321 0
-1957 5242 -9155 0
3111 -3633 5636 0
-1871 7443 6453 0
-1880 6014 2746 0
4017 5031 6812 0
-8693 4690 -8483 0
-8902 4580 4729 0
-6354 3521 -3764 0
2846 3209 3313 0
3052 5632 -5916 0
-2628 -6368 9480 0
-5695 -2715 -7301 0
717 8790 -3245 0
-6137 -4233 -821 0
3654 4088 -7587 0
4782 -8461 2461 0
2875 6290 2920 0
5575 1844 -3107 0
9265 -4942 3419 0
4379 -4575 691 0
-2486 -4941 1383 0
-422 3701 -7682 0
-571 4835 1958 0
9454 -9830 7242 0
8119 -1128 -6707 0
-302 -1064 -3633 0
1764 1132 -148 0
-9370 -9358 -1132 0
-1565 -7704 -4091 0
-33 -9198 9422 0
-1985 2384 6383 0
-8779 8142 3962 0
-6894 -6818 8549 0
3331 3535 5129 0
2974 -5699 -7792 0
-4546 1033 -7065 0
6286 -5400 -9315 0
3449 6042 4677 0
-5205 8880 -3274 0
-9909 -3534 6633 0
-6007 -2879 5118 0
-9689 2671 -5226 0
-8701 -923 3706 0
2460 -2445 -3692 0
-6480 -3168 6600 0
-9421 5794 -743 0
6231 9411 -8081 0
4106 2865 4666 0
7978 -3011 -7476 0
4996 -6622 -9099 0
2423 -4889 -179 0
-4818 -7184 -8855 0
3102 -7944 -2937 0
-9923 6031 5941 0
-3621 523 9068 0
2066 -8891 3222 0
-3821 -6562 9225 0
231 -7064 6886 0
3304 6320 165 0
83 -400 -3076 0
377 3164 8059 0
-8543 3076 -1979 0
-9343 -8655 6702 0
3140 2559 6715 0
-8671 -9963 7066 0
2098 12 -7617 0
3090 1315 -8232 0
3665 -411 -9169 0
1604 -1866 7394 0
-421 8689 271 0
2981 -5832 9293 0
3833 -3443 263 0
-4854 7648 6219 0
5066 5500 -7940 0
-4337 -5249 -3655 0
8152 -9882 4811 0
-6193 5369 -3403 0
-9779 1829 6480 0
-467 -5797 6504 0
-4303 -656 6302 0
-5871 4971 -5458 0
-8326 -6613 6815 0
7106 4587 9263 0
-9980 6879 -1194 0
4013 1037 8716 0
9752 9322 683 0
2457 7469 -7297 0
-2397 -3048 1205 0
-3862 -8968 -3804 0
-4112 -1186 7949 0
8288 7641 6790 0
8012 407 -4567 0
5523 2718 -2227 0
-7075 1761 9913 0
-1810 -3879 1241 0
-7675 6638 1741 0
7186 2270 -8679 0
4236 2395 -7035 0
3197 2032 -7451 0
-1105 -134 -5966 0
1851 6187 7996 0
-4369 -9607 6822 0
-4373 -3540 6209 0
6620 -1975 2343 0
-4095 8098 -8240 0
6060 1101 -456 0
6395 3049 4289 0
-8441 -7982 4443 0
2976 -9580 -5718 0
-6759 2543 768 0
4314 1828 -6240 0
8564 4012 -5292 0
5235 5633 4310 0
4973 6079 -6245 0
9641 -4258 -6943 0
6862 1286 -2125 0
749 4251 6987 0
-5566 -3329 -2846 0
-8004 -3862 1715 0
6793 -3314 9292 0
2432 -1476 3307 0
2963 -8129 9429 0
4925 9816 2770 0
-8776 -4759 2749 0
-1454 -3359 9997 0
-2899 -4249 6291 0
3589 3765 2708 0
7621 -2898 -1795 0
-7009 -3694 -2821 0
-7623 7312 9340 0
8071 6818 -1962 0
9004 8984 9203 0
1925 -3014 6517 0
7860 5127 5241 0
-5219 -1764 5207 0
3805 6548 7048 0
-9183 -5528 -9583 0
-7346 -3624 -3733 0
5023 -7993 982 0
-2365 5916 -3200 0
-9083 9856 9537 0
7986 836 7901 0
4251 -3149 1398 0
-3768 -4799 -276 0
8786 -5393 3771 0
7072 689 -2749 0
-2327 8162 4684 0
7185 3935 9166 0
4285 -141 -8788 0
-5640 -5847 5543 0
-966 -8480 -6514 0
1236 9453 4612 0
-8442 -7189 9526 0
-6717 -49 -2868 0
3216 -8568 2246 0
-2481 7665 -4386 0
4590 -1843 -4132 0
-5154 -6546 -2840 0
-7629 -1209 -2715 0
-425 -2548 -9386 0
-9173 -4586 -153 0
6351 6141 4781 0
3935 521 7735 0
-9403 8387 6228 0
6663 -4492 -7564 0
-3531 -4917 6232 0
-5186 -3888 6267 0
1463 -4218 9625 0
9823 -1229 6699 0
-9105 -8314 -8747 0
-9081 -8276 -3463 0
-7765 -3085 -8371 0
3203 -5678 6018 0
-7337 -1045 6261 0
6770 2834 -7469 0
2815 2027 2405 0
-9046 -9308 5 0
-3160 2215 3800 0
7077 7137 9069 0
-2337 5952 -1151 0
597 -6157 9254 0
-8476 -1503 9770 0
-1932 -7690 9785 0
-6425 6265 -3868 0
-2731 -5499 5777 0
4972 6369 -2734 0
7717 -5114 -76 0
3955 -9583 -5869 0
4462 9947 4282 0
2264 1708 -8710 0
4954 6336 7491 0
-3122 -5550 8618 0
-2061 -1937 3387 0
1588 412 6206 0
-5148 -5480 7285 0
-629 409 9536 0
-4656 5993 9426 0
893 -3405 -8026 0
-9229 1015 -7212 0
8815 -2071 -950 0
-3062 9961 -5952 0
9681 -9679 -3113 0
488 9429 8081 0
4178 -4094 1157 0
-5513 -7333 -2761 0
-1973 -1486 -1250 0
6065 906 5966 0
-6948 -1692 -4181 0
-2101 1899 6346 0
-775 -9961 -7735 0
8768 -4673 -9220 0
8286 -8132 -6943 0
-8162 -1126 7374 0
-7502 7392 5676 0
-4557 681 1749 0
-6659 120 3418 0
333 5554 5102 0
4473 2487 2071 0
-5994 -747 9276 0
5753 2010 1325 0
-8930 -5033 6208 0
-9896 8571 6808 0
-9945 -213 -9363 0
6615 -3267 8444 0
-4717 -7828 -183 0
-2573 -3350 -2700 0
-7698 -7029 2845 0
9413 4339 -1296 0
-4709 9923 91 0
7097 -4806 -6171 0
8851 7252 9917 0
-302 -7530 5439 0
7048 5796 -3129 0
3980 -5392 3091 0
-8837 9437 -6932 0
2278 2441 2037 0
-5974 272 -6067 0
3372 7394 4980 0
862 -7216 -3332 0
-6664 3633 -7757 0
192 -250 1681 0
5220 -585 7052 0
-4740 -6929 -9891 0
4515 -3649 2423 0
-2846 -8019 -7895 0
-6564 -6202 -9656 0
5421 -9744 2734 0
-2413 6417 2515 0
5274 -4265 -6557 0
-5139 -3670 -6805 0
8859 4883 -1106 0
-4782 -3195 7841 0
-6076 1845 -2648 0
-8382 8174 -3337 0
-902 -7199 6753 0
1338 -5524 5812 0
4729 8175 524 0
8408 -4620 -3013 0
8074 -6304 6684 0
-3066 -957 3648 0
9559 8665 3580 0
-4893 -5251 -1285 0
-5198 -890 -837 0
2007 4760 8714 0
8175 4421 -4159 0
4417 -7632 6353 0
8492 -969 -5573 0
3287 -9954 -6141 0
-3398 -8713 4656 0
-8305 1700 -7476 0
4276 3827 8206 0
6863 846 -860 0
-5561 3416 5672 0
8786 -9689 -4509 0
1048 4730 1277 0
4874 -7167 8106 0
-1180 355 -5217 0
2077 -9178 9379 0
6584 9224 -9985 0
1561 -986 70 0
3623 -2771 -766 0
-3027 123 -1547 0
-6282 -1455 -234 0
6989 7665 7337 0
-7998 5277 -33 0
7486 3420 -1576 0
-4142 -8572 -2948 0
-3555 -4949 -5272 0
1135 3085 2736 0
3684 -2105 3298 0
4330 7583 8406 0
-5011 7237 9298 0
-4860 2585 -6158 0
-9799 -22 4052 0
-4288 398 5293 0
7598 -9437 1757 0
4847 1902 -1786 0
-1349 -1991 5375 0
-4028 -6995 -3861 0
3942 7625 2232 0
2105 5121 -6793 0
-9514 4667 -2084 0
-6300 4943 3988 0
-1328 -1101 -7334 0
7957 1167 -6774 0
3210 5491 6668 0
-705 2303 2078 0
-264 1393 -1463 0
-4622 14 -2297 0
7681 898 7776 0
-8023 4581 598 0
4821 -3712 -2848 0
-5119 574 9922 0
-8128 3758 -8651 0
9953 -774 8618 0
-4485 761 4954 0
-170 4682 9786 0
7653 593 -299 0
100 -8394 -3296 0
6757 -8970 2662 0
611 60 7227 0
-3305 -2915 -2464 0
-1053 495 4607 0
6837 9398 9638 0
-531 -3880 -2480 0
1822 -938 -4941 0
-8432 -1317 -6139 0
3778 2759 8474 0
-7920 -6146 -5351 0
1977 -3141 -338 0
5017 -5954 8571 0
-6204 3258 6696 0
5664 -3563 4405 0
326 1663 737 0
8379 -2284 -140 0
8815 1016 -9506 0
-6547 -7357 -1615 0
2908 5001 1053 0
7324 1311 2822 0
6351 5254 4266 0
-9057 6563 -201 0
1264 -1749 1525 0
-7281 -3236 6042 0
-7298 7557 4163 0
7068 -7263 4297 0
114 -609 9477 0
-4671 -9681 -79 0
9061 7170 2202 0
1378 4921 9470 0
2817 4158 1056 0
5872 -1950 830 0
-2027 -1491 -7752 0
-3017 6860 2551 0
6040 7915 -4956 0
5353 3396 5265 0
-7772 8978 -5150 0
7585 -2621 -8165 0
-5867 1272 -2418 0
627 -3159 -4041 0
-3323 -9709 3117 0
34 -3454 -288 0
2210 -2311 -825 0
-863 -3386 -5767 0
-4493 990 -5179 0
-8268 -6181 9752 0
2998 5164 6462 0
-8271 4372 -2278 0
7175 5615 -1616 0
-7254 -7944 3943 0
2428 -3396 -5728 0
431 5188 5765 0
-2391 183 5898 0
-3641 1661 8327 0
-6156 7583 9748 0
1311 9843 -4466 0
-2600 1354 8889 0
3301 1153 640 0
320 -4543 7121 0
-2969 2525 -6343 0
-7588 -2695 -3552 0
-5215 -3057 -876 0
-9288 -3543 5292 0
5449 6698 9157 0
-8756 5232 9574 0
-4753 -4728 2471 0
3499 3659 8760 0
-1780 -2776 7703 0
-6753 2648 -8754 0
-9387 9057 -6875 0
2209 4635 -7153 0
3332 3175 1311 0
-2305 -2665 6638 0
-1564 442 8762 0
5187 3057 4980 0
-2410 1162 9194 0
-7033 1258 -7035 0
6887 -2753 9248 0
-3969 -1944 -271 0
-5122 9579 9185 0
-239 9723 4650 0
-2787 -7732 5562 0
-735 -4021 2619 0
-9600 -5913 -2842 0
-3586 2609 -2897 0
-5481 -5569 -6827 0
5280 3312 -871 0
1532 -2716 5878 0
5761 5643 7015 0
1849 -7033 -7452 0
-8372 -7727 8214 0
4663 -5405 1881 0
6999 8065 5808 0
8482 -7191 -7415 0
-913 -1210 -5220 0
-3405 4091 -1696 0
2009 4976 1136 0
5090 -3537 1080 0
9817 1509 -3542 0
-6389 -8633 2010 0
-6304 -2058 229 0
-5395 -6912 2690 0
3829 4888 -6088 0
29 -3955 4988 0
9246 -7102 8201 0
-9201 2002 -7685 0
-650 4709 -7888 0
1102 5413 -6847 0
1049 -3326 -2732 0
2823 -3380 640 0
-1056 8687 2655 0
8696 -1666 -2993 0
9909 -7670 -6586 0
6191 -4508 6971 0
-2127 -3857 -1319 0
-7267 -3475 2597 0
-6379 -371 9089 0
-7573 6884 2844 0
-4561 8477 5652 0
-264 9441 3415 0
-1818 -2876 93 0
546 -9152 651 0
2523 -9657 -5391 0
1770 -9261 -6231 0
-7268 2539 -256 0
-5889 -7089 2450 0
8311 7450 1838 0
9579 -9423 5215 0
-3611 7591 6423 0
-2084 3031 9045 0
-2017 2785 7065 0
5670 -6153 6091 0
-9105 9516 3962 0
6904 -2596 9393 0
1781 5489 3957 0
-9959 8595 -473 0
5480 -4577 -5406 0
-1716 -8351 6338 0
-5095 7279 -7624 0
4018 -2562 -8291 0
-3190 -5134 8971 0
-2448 -8779 -109 0
-9611 9622 3539 0
3639 9334 -4915 0
-3512 -4387 4930 0
6358 -5340 9703 0
-9646 478 -2893 0
-9151 1461 2724 0
6960 -6260 -8156 0
9033 5284 -8480 0
9397 3111 -8181 0
-8151 -3934 -8389 0
1651 976 -1387 0
-5792 -3603 7745 0
-5132 -4478 7335 0
2879 -8924 -8243 0
-4541 8897 6737 0
2980 2834 -4356 0
5633 2320 -2483 0
-9836 -7975 6861 0
8914 -8552 -8220 0
-4105 -8204 2511 0
6109 -9149 8537 0
9710 6110 1513 0
3580 8832 -5190 0
3978 3883 2950 0
-3338 -6881 -1121 0
-6952 -8489 1727 0
2860 7642 689 0
5664 -9790 7163 0
5357 3205 -1800 0
1751 -7042 929 0
-9731 7088 -5927 0
9270 8443 -9812 0
3171 -3457 -2497 0
4579 3725 -8834 0
-4859 -3911 -669 0
-3172 -7657 2536 0
-705 8789 -9771 0
-3981 6018 8490 0
-5592 4392 -4899 0
1873 739 -8691 0
-7254 -3753 -9908 0
-5570 -8833 3346 0
-9296 7552 -1607 0
5811 -9729 -9655 0
1003 181 6110 0
-4761 -49 1591 0
3551 -7675 4372 0
-7918 7601 -1659 0
3588 1461 -2380 0
-3086 4773 -1100 0
2050 3945 -1703 0
-7598 -507 7671 0
5506 1888 -9307 0
-2694 -5441 8214 0
9906 -9406 2644 0
1413 -9954 -4854 0
4798 -645 -9511 0
3923 -2921 6685 0
4697 -9255 969 0
-873 4971 258 0
3071 2161 9984 0
-8217 6639 -8188 0
-3037 -9391 -8920 0
-2984 1990 6577 0
9254 -3222 -8596 0
-971 -7558 5300 0
-948 4558 -5816 0
-6950 -1304 4882 0
-2974 5918 4956 0
-6870 8705 63 0
7060 -3367 -346 0
4857 8765 7000 0
2426 -4865 -8401 0
4382 -330 -645 0
2219 -4110 -4739 0
9490 -5758 2630 0
-8794 -2810 1079 0
6844 5651 5130 0
-3130 7882 912 0
474 1273 7536 0
-3733 -7946 4021 0
8317 -8520 3852 0
2324 5280 -2109 0
-4743 9704 9551 0
-3115 -2823 -4111 0
-113 -1362 3592 0
-4648 -9653 420 0
1229 -6693 4431 0
-5617 1348 -7789 0
-6541 -1221 -9639 0
5865 -1473 1421 0
-8533 3021 6528 0
2057 -8953 4358 0
-1417 -6792 -6308 0
-5582 -7788 -3015 0
8806 -1154 4331 0
-189 -9012 2605 0
4624 827 -945 0
-6166 2003 -9819 0
-4702 5081 7163 0
7501 -926 9299 0
2516 -9618 -9361 0
-6676 3476 301 0
-8400 5994 1995 0
5143 5375 -8538 0
-9396 357 677 0
2460 4725 -8181 0
4782 -6508 -68 0
7978 -4512 3921 0
-8135 -4770 -1863 0
-7867 -9207 -2673 0
1808 -7541 -9045 0
3342 4570 4157 0
9492 -2315 -1770 0
-3926 -4146 9991 0
4669 -2150 -8698 0
2022 -7462 1615 0
771 -6895 -3195 0
9431 -7535 4416 0
8602 -2903 4802 0
4031 3233 -4130 0
-658 -1564 -4157 0
-2095 -9435 -957 0
-8503 8720 6746 0
-6685 -2206 -4648 0
2569 -6866 8522 0
848 8692 7358 0
-2445 9565 5021 0
-1431 -4921 1374 0
6315 -1268 3592 0
5496 6241 6631 0
44 5807 -8535 0
7526 4264 -852 0
3668 5496 2350 0
-3752 3205 8302 0
-6239 6925 -4047 0
3972 -88 8169 0
-1669 -662 1070 0
6117 -1234 4506 0
2356 -7245 -4115 0
-8427 4950 -2811 0
-4742 4643 -2575 0
-5782 -2270 -2599 0
-4163 6326 2403 0
-5471 -9392 -8863 0
4027 9465 -9206 0
-317 -8748 -1491 0
-1799 7434 5460 0
3426 5736 -2520 0
-6205 5264 7146 0
-289 -6366 -4572 0
7440 -3712 -9652 0
8742 -9126 -3529 0
-1874 8201 -9385 0
-5946 17 -7023 0
-2980 -4365 6143 0
2096 8547 1562 0
-7550 8593 382 0
6441 751 -6217 0
7650 -4365 -6764 0
-1767 577 2212 0
2559 -9379 1862 0
-2338 -6950 3175 0
-4929 1131 -5824 0
-6757 -5285 -1503 0
8577 -402 6186 0
1550 -3276 -1234 0
720 6905 7969 0
-7866 -4666 2200 0
-8549 -4203 886 0
-6512 -1078 7733 0
1671 -1572 5897 0
-3296 -1792 -3227 0
1782 6908 263 0
-3489 5873 1625 0
-1532 5957 -238 0
4318 3942 -6412 0
5796 5158 -1386 0
3896 -309 -2515 0
1379 2426 6646 0
6166 -3733 -4914 0
-9121 1226 7497 0
791 2419 -6313 0
-4066 2651 2202 0
4944 -8059 9134 0
7782 7563 4947 0
326 -6311 9449 0
8715 6751 3953 0
-5265 3532 1608 0
6417 -7966 3015 0
-157 6464 -4076 0
-7950 -4531 -80 0
6804 7152 -7970 0
7929 -3019 3117 0
-635 -2641 6497 0
-3091 -6190 5245 0
-8983 -3495 4810 0
9105 8580 -3669 0
8348 -4714 -4814 0
8463 -1460 5438 0
-9306 -6239 7874 0
-2224 1612 -2974 0
3295 -5407 -7929 0
-9146 -4176 -7735 0
-2411 2993 -2626 0
-9815 -5244 7384 0
740 7737 5909 0
6955 4939 8035 0
-6608 -5309 7905 0
-2589 4649 8483 0
1495 7681 -5344 0
-1750 9387 -9667 0
-6126 878 -9700 0
3927 574 3600 0
-9196 -4229 6679 0
8918 6730 354 0
7196 -7752 2852 0
4325 9891 7497 0
2171 -843 -8636 0
1781 2355 4662 0
-6146 -1021 5801 0
-4936 3826 -1571 0
-1742 -1834 -2035 0
7587 -937 1086 0
9592 2352 -5627 0
865 2254 9363 0
-1854 -9860 5077 0
-2643 -6384 3559 0
6972 5931 350 0
-8505 172 -1268 0
-577 5546 957 0
8833 3881 6765 0
7643 -1652 -8830 0
1015 9817 -812 0
-2813 -6424 2720 0
-9657 -8142 7770 0
-1537 -8381 -8842 0
-5676 5780 7060 0
1009 -1801 2268 0
1118 1822 6877 0
-7072 -1227 -9265 0
647 1779 1951 0
-3027 8920 3749 0
-810 -371 2685 0
3106 -9862 -6420 0
8913 9039 -1399 0
-280 3278 -5918 0
9718 3251 8134 0
881 9870 7766 0
3555 623 -6355 0
2159 -9507 9896 0
7077 -2148 5594 0
9171 -1514 -972 0
-6878 990 -1772 0
-140 -2678 -2128 0
-8945 6942 -9834 0
7208 -1883 6915 0
-4200 -6652 -1281 0
9567 7164 -9728 0
7588 9762 6482 0
1274 4821 7790 0
2174 4444 4956 0
7753 7143 -1435 0
2818 -9924 7522 0
-8795 -7869 3326 0
-7275 -2268 44 0
-1715 865 9597 0
4242 2925 -8647 0
5898 -9473 2499 0
9794 382 -6586 0
6220 -2123 4798 0
6556 3435 3753 0
8553 -7340 1966 0
3426 9196 -9842 0
8832 -5040 -6210 0
4417 -6824 8026 0
-9287 -1022 -8681 0
-700 1448 533 0
8455 -7602 8492 0
-2653 -7185 8652 0
-6486 -782 -2735 0
-9396 -8389 5541 0
-9060 6316 -323 0
182 -1867 2895 0
8662 -257 -4701 0
-9318 -6446 9292 0
9109 6725 -1907 0
-6721 -6290 7424 0
-9310 -8691 4997 0
5495 5786 3172 0
1458 -7234 -8678 0
-1566 -4015 -2828 0
-7881 3861 -3370 0
-2654 7019 -4601 0
6959 2005 8098 0
5639 -1936 6799 0
2540 -8099 -8164 0
-7581 4261 7789 0
9247 2538 7130 0
8867 -8317 -4470 0
-2938 -7017 4066 0
4114 6225 557 0
-981 -8400 -283 0
2521 -8133 8684 0
-3820 3450 8383 0
2619 7719 6531 0
6575 7909 -6593 0
-9153 -2904 -1288 0
-266 -1807 -635 0
4709 -4135 804 0
6964 2204 5963 0
9142 9654 -6091 0
1126 -3699 -2955 0
4216 -8063 2096 0
9018 4559 -1258 0
-9615 1314 -7192 0
-2027 5430 2459 0
5590 3859 -2899 0
5753 4336 -4640 0
2624 325 125 0
-1451 8613 166 0
-999 -7403 -2212 0
4547 -1059 3497 0
-3856 -2296 5082 0
-7610 -8798 6774 0
1266 5865 -2864 0
-6008 7999 7532 0
1174 1549 8710 0
806 6109 -9059 0
-1768 5650 3549 0
761 -1018 -6991 0
-9931 2627 -7840 0
2398 -3314 -9840 0
-763 -8941 -3815 0
-7636 -1607 4842 0
-8616 9318 -6934 0
-8035 1044 898 0
-9639 4461 -8175 0
-569 -9249 -697 0
2926 1177 -9525 0
-8091 8809 -6710 0
2095 -3616 8324 0
1198 5889 5672 0
-3687 -4022 2350 0
-7040 -8155 -6087 0
-8240 -7725 -6769 0
3270 -5911 948 0
9888 1154 -731 0
-6922 -4473 -6493 0
3676 3637 -6931 0
-855 7817 -6481 0
5222 9627 -9327 0
1543 -2384 6859 0
-7282 9766 -1753 0
9183 -3978 6029 0
-279 4383 2714 0
792 1209 -5928 0
6041 -7643 4416 0
-6488 -2456 -5635 0
4416 4702 4865 0
-8871 7416 -8182 0
6132 1910 9550 0
6621 -246 1327 0
308 -4497 -3310 0
8983 -8621 -99 0
-4489 -2042 -4925 0
6310 6285 -1123 0
-577 8669 -3311 0
5623 7889 8240 0
160 -8190 7234 0
-1294 1552 -3818 0
-6907 -7891 -191 0
1109 -4599 -6118 0
-5771 2315 -60 0
-7252 -3529 3724 0
-4952 8074 4763 0
-9294 -1837 3279 0
-6343 -4846 5326 0
-328 7399 -8563 0
-3959 2286 -6903 0
-4338 -6353 2176 0
3537 -7820 2113 0
-1605 -1419 -1105 0
4799 2303 923 0
4102 2877 -6785 0
-8707 4123 -8857 0
-9982 8132 8159 0
6724 -3325 -8865 0
4079 4812 -9078 0
-9336 -1603 -5014 0
8634 8517 6976 0
9254 -7147 -4167 0
-4019 -7165 -1872 0
-2975 -8972 9762 0
-1145 6415 8276 0
-5797 -8953 -7981 0
8276 -2442 5213 0
-9503 -978 -9309 0
1196 4730 -2633 0
-2247 229 -9201 0
9507 4565 -803 0
5988 -4018 -565 0
-8767 -8107 -2045 0
7196 7565 -8878 0
-981 -1445 -1833 0
4946 -9414 -8504 0
-9340 1472 5212 0
-5545 8894 969 0
-3264 -5915 -7015 0
9484 3008 -3952 0
1908 4796 4832 0
-2565 4093 88 0
6708 -1151 5173 0
4734 -6771 7180 0
662 -2529 -7087 0
-5060 -627 5661 0
-8125 -516 -4314 0
-8319 -6659 -4779 0
-1002 4427 4493 0
1735 9780 4675 0
4255 4480 -1098 0
7711 5628 2971 0
-6492 6736 -6142 0
5251 5021 2792 0
-4879 -3819 -8991 0
-4544 -9837 -6783 0
9201 11 -7755 0
4200 194 1731 0
-1902 -590 199 0
-4148 4593 -5804 0
1619 5508 -9784 0
3833 -774 2214 0
-7474 6647 -3870 0
-18 -7431 5163 0
2269 907 -8581 0
-3070 -923 -6177 0
1982 6937 6659 0
4038 -5174 2331 0
-76 -861 6068 0
-3777 9108 -499 0
1444 1138 2896 0
-5287 -7412 -1585 0
5280 8475 5224 0
2963 6924 -909 0
2405 3226 -2288 0
-5147 -9785 -3251 0
-78 -978 2052 0
-978 -9882 -1948 0
-3595 891 -4541 0
-614 -8082 -4719 0
-6168 -4941 7915 0
-8690 2510 -2069 0
-5201 6025 4937 0
-3047 -7021 6708 0
-1669 -7214 9479 0
9029 4467 9310 0
-5247 8605 -5343 0
6812 -2918 2545 0
-1973 -9202 -9632 0
-4302 -7194 -3497 0
9135 -8965 2586 0
-113 -4965 -2208 0
3040 -8004 -6436 0
1986 7233 6382 0
-109 -6712 6718 0
-9455 -4540 -7620 0
4859 -6078 5389 0
8228 9664 -2029 0
1333 2396 2083 0
4082 6882 -800 0
4884 5517 6958 0
4652 1857 3944 0
3047 5676 8209 0
4611 8310 -8878 0
2802 843 867 0
-9311 9771 -8862 0
-5818 -9440 6573 0
9984 -2128 4674 0
1978 -4951 5866 0
-1739 757 -5365 0
8201 7725 -7356 0
5119 -6957 8705 0
1533 1272 5218 0
-7384 8931 -2983 0
-992 -2972 -3628 0
6384 1646 -3259 0
-6684 -6676 -1971 0
-2810 -1490 6515 0
8247 -354 -8523 0
9467 -7141 3627 0
7617 2125 2058 0
-5245 2324 1957 0
4475 767 -7474 0
-7833 -5692 2492 0
2487 -8500 -7035 0
3150 -9685 -8279 0
-4163 -9572 6045 0
-8548 -4687 -8999 0
-2298 4855 5810 0
-2980 -6385 8414 0
1059 2882 -3670 0
-9534 9440 9574 0
-9550 2331 3262 0
-2915 -3386 -5284 0
3363 9863 5797 0
1434 -2502 9533 0
3034 5130 -1524 0
547 9753 4067 0
4666 3910 -3188 0
9965 -167 -9114 0
-5518 -3811 1934 0
-388 1016 -155 0
9176 -8142 1397 0
-824 1670 -5786 0
8655 -8595 -6477 0
-1083 -3074 -1252 0
-5811 8090 -5547 0
9730 7932 8817 0
5313 2229 -9825 0
7366 -8432 -9837 0
-1622 -3929 -5767 0
-6056 4463 -4834 0
6259 -6115 1442 0
-9870 -5418 -6817 0
9763 8328 1498 0
-2229 -8487 -8717 0
-4713 7458 5017 0
-639 9973 4089 0
3349 4662 8930 0
5607 6025 -2092 0
96 -4460 -1341 0
7183 -1748 7863 0
5799 1700 5825 0
-6926 8368 -60 0
-4438 -1332 -7092 0
6274 2110 -6982 0
8521 8279 -4762 0
3656 -6882 -3924 0
-9606 -5562 -7077 0
-244 -9751 -1657 0
9106 -6885 -586 0
1639 3879 7201 0
6995 -8765 6354 0
7277 -4381 1916 0
4649 -4420 8651 0
-9667 -9289 5565 0
-845 -42 7801 0
-1956 9181 5137 0
-7478 -4831 -9495 0
7950 6133 817 0
3964 -3035 -7767 0
-6136 2436 -2186 0
-8898 -386 -3768 0
3120 2782 -99 0
9697 -6343 -1759 0
-7822 2178 1672 0
104 -7060 -6407 0
-6582 9648 -746 0
5172 -1954 -9466 0
6134 5778 -7779 0
5612 9361 5709 0
1761 -5146 7317 0
6988 4975 1732 0
-5873 -4773 -9160 0
2549 -6346 9647 0
2591 -8932 -1825 0
9115 8080 -3954 0
1454 -4626 -7803 0
3072 -8589 5042 0
5246 -1238 5875 0
-4343 8975 1101 0
-925 -5464 3860 0
-7927 6815 -9314 0
-3425 -9447 1055 0
-7175 9425 -2299 0
-5620 -4616 2529 0
7735 2802 44 0
-5045 -8971 3394 0
-2400 -1592 -1965 0
1199 -642 7301 0
9454 -8110 -2958 0
-5947 -6186 -281 0
7101 -2938 -4710 0
7250 -369 -3870 0
-4060 6105 -5378 0
6969 1332 -5373 0
-6498 -7382 -6040 0
7306 5200 5668 0
-3031 9510 -1056 0
-9898 -8551 1309 0
-5095 6349 -139 0
8748 9691 -322 0
-3863 5572 9020 0
8451 4881 7516 0
-7332 3243 -2853 0
-6679 7191 1531 0
8177 9846 -4064 0
-4003 -80 -8780 0
7432 6842 6761 0
-745 7244 2572 0
3295 4715 -4204 0
9007 -4706 1243 0
-6143 406 7172 0
6213 9586 5491 0
1195 -8443 5750 0
4457 -7466 -2290 0
-3012 -4055 -3521 0
4608 5380 -147 0
8754 -3018 -7340 0
8881 -4097 -4846 0
-5124 9890 5612 0
1750 -1770 9098 0
3907 7090 5847 0
6859 -5606 -8956 0
-2414 -8603 1133 0
8345 -4009 629 0
-4311 8411 260 0
8132 1093 7191 0
693 4894 -5881 0
-4955 6113 -8368 0
-7563 -1040 8148 0
-4913 -6184 463 0
-6774 848 -3453 0
-4867 3123 -8688 0
-3151 4814 8115 0
-1416 8923 -4215 0
9794 -7940 -1319 0
-3353 9674 9196 0
8017 9365 1203 0
-2522 -8061 -9299 0
-415 -7441 -5098 0
-782 3685 -4850 0
-6306 -5623 -9814 0
-7698 -9910 -4254 0
-3056 7312 3169 0
6284 -7249 5113 0
2390 -7377 9873 0
-3336 6392 2525 0
1945 -6221 7657 0
5846 -4963 -8561 0
4670 -7697 -1281 0
-2472 2505 7477 0
-2079 -8136 -8155 0
873 2368 -8795 0
9591 -8330 2046 0
2757 -4037 -4583 0
-7271 -2634 -4414 0
9136 -4031 -8097 0
5713 -7543 1456 0
-5342 -3038 5695 0
1782 5961 4288 0
-3591 -4016 -7856 0
3174 -6390 -3140 0
8477 8585 5744 0
-253 -396 3014 0
7704 3893 9686 0
-2979 3786 -7900 0
402 -5997 1404 0
-8904 3528 -2644 0
7265 1549 8024 0
-5441 -3804 5877 0
5173 -3766 9549 0
-8149 -6821 1230 0
-8726 2709 -9782 0
-8582 5363 6934 0
1808 -6958 -2208 0
9037 -9952 1236 0
5299 9356 -6950 0
-8401 6454 -6381 0
9488 7468 -3946 0
7858 4224 -3175 0
9978 2887 -1271 0
3805 2339 1131 0
9591 -5265 -869 0
3869 -1637 -493 0
-6261 4715 -1641 0
2605 -5981 -5734 0
-9570 7913 -7182 0
-3689 913 8184 0
-5071 5897 -9840 0
4593 -6755 -9757 0
7442 -4073 5078 0
3608 5736 1175 0
-1142 -3027 6321 0
106 530 4692 0
-4748 -7067 -1035 0
-1459 -5857 -631 0
6163 -7979 -3699 0
7664 -2135 -3735 0
9550 -7932 4066 0
9414 5243 9633 0
1728 -2929 -9461 0
-4772 3485 2719 0
6549 4726 -537 0
-5364 -1388 -9243 0
-3578 1577 7971 0
-8113 2056 9296 0
8111 6648 6210 0
3927 919 -3390 0
-4455 -4683 5594 0
-7452 -1876 1146 0
-2542 3207 5739 0
1228 -6638 -3788 0
-2944 -3674 2274 0
5782 2935 -8609 0
206 -3209 -2774 0
9548 5592 9625 0
-7515 5857 6851 0
-9317 6022 3453 0
8713 -8985 -9212 0
5831 -7934 -5951 0
2882 185 6556 0
7267 -7564 -5242 0
6163 -2193 -8855 0
7624 -8318 -6516 0
842 -532 5369 0
7835 -5692 7363 0
8192 -2332 -631 0
5097 8826 -9881 0
7952 9669 7400 0
9788 -8076 9410 0
-1170 -8979 4692 0
8176 1518 61 0
-6751 4514 9528 0
-9896 2999 8618 0
2818 3038 -4569 0
2007 4904 1997 0
3167 3963 7656 0
-5967 590 -4082 0
-5128 940 7073 0
-8397 -9602 1862 0
-7674 -5096 -6412 0
380 7023 -8789 0
-3120 9812 1597 0
-5153 -7064 -1855 0
2134 -2364 -5751 0
9150 4004 -8130 0
-4408 9656 4910 0
9068 -5458 7365 0
-1820 -2491 -3513 0
-5072 5109 6360 0
8342 -7378 2346 0
7024 9425 -887 0
5626 -1951 6663 0
121 -5470 -2554 0
3703 -1458 -974 0
-9898 -4636 -4008 0
967 -7947 8438 0
2088 -2657 -1683 0
-9680 9577 4531 0
3729 -3482 -8441 0
-5458 825 8165 0
-2735 9505 4057 0
-9486 6323 -1696 0
5736 -2158 -1953 0
-6821 -3342 -7195 0
5379 -1051 -9255 0
1119 4041 -3789 0
2658 -6661 -1406 0
9756 7530 8426 0
4970 -3499 5411 0
-7669 -7100 -714 0
-8552 6122 4033 0
-704 -1132 3288 0
8733 -4104 8297 0
6752 -4388 -4397 0
-1077 9191 814 0
-5632 2649 6335 0
4452 2986 9489 0
4440 -8699 6005 0
8127 -2997 7739 0
5316 2981 6742 0
6745 9162 -380 0
-5758 2827 -7286 0
6823 5820 -2992 0
1974 5487 -1195 0
-1669 6900 -6473 0
-5329 1652 5107 0
6663 4848 -1051 0
2637 -398 -3102 0
3019 -2219 1480 0
5669 -401 -5261 0
-909 -8050 -799 0
3429 -754 -7174 0
-8309 3307 4774 0
-4940 -4766 -413 0
8230 -7184 9403 0
8531 -1336 -2431 0
6372 9423 -3217 0
-4524 -1133 -1582 0
3507 -2821 -9415 0
3598 -4552 -3843 0
-6891 -2104 -2882 0
2887 -8448 -1179 0
-5636 8745 -1398 0
-8712 9834 -9887 0
-3553 -2055 -8170 0
4868 9268 -8688 0
8976 8506 7846 0
629 -405 6724 0
-5615 4359 1869 0
-9596 9137 9727 0
3120 -8371 -7769 0
8451 -5374 -5948 0
-148 -3506 6915 0
2677 -6765 -4423 0
-4044 -6735 -8710 0
-1183 -5074 5903 0
7212 -1485 -9357 0
-5161 -4283 8891 0
-2394 -5678 6571 0
9448 -5809 -6399 0
6959 3491 7555 0
8956 -5038 6687 0
2792 -9740 -215 0
-4759 9315 5984 0
1054 -3615 3748 0
-2782 -489 -4620 0
1390 8735 -4890 0
2754 9250 -6005 0
-1949 1152 2124 0
-1055 5940 -8896 0
-4637 429 2970 0
-4931 -1387 -7584 0
-1427 3932 -6951 0
852 4145 5553 0
5471 -6224 7546 0
-5599 -309 -1520 0
-3725 7510 75 0
-598 -568 4692 0
5817 3659 5012 0
5874 6957 6491 0
-6558 -8620 -4321 0
-5187 -7987 9123 0
-1998 848 -2248 0
599 6526 -662 0
2510 8191 7946 0
6497 -1804 -4690 0
970 1204 7435 0
5152 -9572 -2211 0
-1455 7943 -3139 0
-5389 413 -9082 0
9901 -4707 -3834 0
7084 7855 -3671 0
-4150 3544 -6106 0
-2826 -3042 4868 0
9353 2449 -3913 0
2241 -7520 8785 0
1361 -8894 4218 0
7884 -8461 -5883 0
-8250 -1468 5321 0
6766 1294 2830 0
-9639 -352 -8406 0
-3400 -2203 -641 0
5834 -1490 -503 0
-9651 -7619 741 0
6047 5771 -5060 0
751 -6976 -5041 0
4326 -7527 -9137 0
1212 1484 1792 0
-5199 3212 -9010 0
-6479 3926 -7277 0
-365 -1025 -7194 0
7604 5324 -5815 0
5292 -9018 204 0
1132 4154 -7532 0
5367 -6645 850 0
2210 -6889 3488 0
-8900 5775 5491 0
-9768 -8710 -467 0
-8131 -5711 -467 0
7276 -5622 1557 0
-6414 6385 -7052 0
1655 -6328 3146 0
6811 -5434 2356 0
9191 7433 -8122 0
9835 -7713 -3044 0
8617 6347 -5008 0
7183 -508 6035 0
1926 -5028 5886 0
4173 -9419 -47 0
4938 -8650 4171 0
9284 6676 2157 0
-8087 3964 -4199 0
9914 5065 6348 0
-6643 -2436 5032 0
9855 3017 -8883 0
5880 -9384 -2092 0
-3395 8097 -667 0
-7167 502 7021 0
-7074 -2522 -13 0
5648 1903 192 0
2267 -5038 3986 0
1155 -1306 -8323 0
-4098 -5908 6794 0
-4560 4451 -2712 0
2569 -8441 3254 0
1477 -4955 -3935 0
5681 -2280 7039 0
-6656 3467 -1894 0
5770 6085 1693 0
5781 8857 6769 0
4947 3240 -718 0
3551 6118 1460 0
7888 -4652 -1528 0
5388 2860 2601 0
-7326 1071 4304 0
4762 -5726 -6122 0
802 7389 -5067 0
-2832 -5083 8565 0
3868 -6160 2809 0
1217 -8962 -8835 0
903 -8468 -5546 0
-5240 -5333 1642 0
5477 174 -5074 0
7042 3483 -6264 0
900 7478 -7923 0
4457 -1051 1235 0
9576 -3312 -6625 0
1156 5557 -5781 0
9024 2278 7251 0
-2521 -5403 2977 0
-4608 7754 1773 0
7145 3773 -1677 0
1906 -1719 -889 0
2208 6565 -5160 0
-7344 6653 -4515 0
4713 8286 1193 0
382 -7929 2343 0
-525 -6927 8451 0
-2454 -3241 -4181 0
-8516 7087 -8449 0
-8315 2952 3905 0
-3663 1549 -9017 0
-2668 -1816 -181 0
-9392 5458 2726 0
-3155 -4204 9238 0
-4169 -4126 -5472 0
1611 452 -6530 0
-7567 6695 -1626 0
-8972 3175 -5543 0
-2958 7999 -7485 0
-8987 -2081 -3741 0
-1332 8259 -2079 0
6295 4194 4685 0
-4378 -7712 -6332 0
6319 7510 -4690 0
-732 3472 9066 0
9156 2478 6103 0
-8031 6268 -6245 0
9958 -8485 468 0
102 -4453 -3609 0
-4982 -7280 -3724 0
2394 -3026 -7322 0
3895 -2562 2188 0
3947 -3241 -2007 0
6934 -3542 9239 0
-7792 -9621 7173 0
-4893 -7672 8664 0
2106 -6266 -503 0
-1152 -499 7674 0
-4924 -8762 2821 0
-6736 -5659 7470 0
2973 -173 9223 0
3649 1491 -7277 0
-9015 -8154 -2637 0
5774 -8463 6380 0
-9835 2991 -988 0
3765 -3380 -2277 0
-864 6793 -2387 0
-6168 -8162 -6686 0
-3831 5494 2007 0
9700 3386 -6667 0
5483 -6242 -7504 0
-1229 8144 468 0
-2333 1058 1965 0
1872 -9019 -3146 0
5474 -5282 8544 0
-8521 4224 5055 0
-6203 -7950 1218 0
-664 -5700 -2325 0
-8264 749 -7065 0
7874 -9727 400 0
-8549 7682 466 0
-7006 -4429 -7063 0
-4446 -7432 543 0
7176 662 -7742 0
-6332 5484 -6284 0
764 -6119 9461 0
-5324 -3867 -3125 0
2778 -7690 -5297 0
-1867 1242 2286 0
1289 9581 5498 0
6074 -4444 -3549 0
-7920 -8534 -1325 0
8073 3025 -6550 0
-2280 6379 -1816 0
-3749 -6521 1764 0
-828 9638 8051 0
-3128 -2584 -9680 0
-4841 -2638 -37 0
-2076 -3368 3645 0
-5511 -4923 -2915 0
-108 8711 5579 0
3040 -7058 5871 0
-7008 2241 -8163 0
-7916 2940 2788 0
-6166 -8951 -6174 0
-7939 8150 6302 0
2483 7186 -3514 0
4918 -2437 -2777 0
-2446 6159 4481 0
5434 2675 -7080 0
-793 -7307 2949 0
-4653 5492 6542 0
-9693 -9755 -6120 0
7928 8021 -5206 0
-9174 -6104 -5620 0
-3277 15 -1267 0
-8873 -2897 5343 0
1447 -2535 6134 0
5763 -3174 4998 0
-4805 9847 -2372 0
1991 -8797 2006 0
-3498 2651 7186 0
9650 -5954 -4649 0
5667 4932 -3134 0
-5411 2890 -8638 0
-1918 -7158 -1979 0
-3380 2909 6358 0
3951 -5807 3989 0
-5937 6569 -1657 0
-7329 7451 3521 0
8104 -7128 2943 0
1182 488 -3562 0
-5307 5316 -779 0
-4611 5621 6340 0
2756 -2619 8295 0
-1407 36 -7459 0
3644 3969 6967 0
9040 -7887 4949 0
7489 -5713 2755 0
7896 -4846 8845 0
-868 -3675 -4872 0
180 7882 6611 0
-5469 -8129 -1834 0
5637 9144 3497 0
3042 5492 8865 0
4704 5057 -1031 0
846 7099 2940 0
7005 -6562 -5635 0
1225 -4068 3912 0
-3504 1343 1636 0
-2643 7262 -5974 0
-8594 3321 -8158 0
-8592 5226 5432 0
8488 -353 5655 0
1864 -5410 -5089 0
-6556 4595 -3578 0
-8517 1745 8395 0
-8908 -2086 -7331 0
7469 1167 5326 0
-7739 -1749 3582 0
1257 -5086 -1152 0
2736 4497 9137 0
-1288 -4650 -9946 0
3458 -7905 5527 0
-4142 6300 6204 0
2492 -4711 -9651 0
2895 6274 -249 0
-2058 5130 -9380 0
-3326 -4023 7679 0
-2060 -9454 8745 0
-1172 -143 5976 0
1034 1402 3069 0
3836 -3814 8513 0
-5113 -9936 9822 0
-9365 9174 -8509 0
-5572 -5225 -167 0
5189 2228 8485 0
-8751 -9312 -8254 0
5346 8362 6551 0
-7766 8648 -9243 0
5724 7105 4897 0
4801 -8764 -5645 0
-1380 -3794 -7929 0
-7458 -7538 8264 0
-5215 -4373 -8990 0
-5668 -7055 5980 0
-2770 2497 -3444 0
-8689 4812 -2228 0
-214 -7525 3041 0
-3667 7353 -6055 0
3725 -7552 8439 0
9285 2455 4265 0
-9391 -1575 7714 0
363 -8494 -9507 0
4738 -2945 -2082 0
-3403 439 -3340 0
-3790 -5938 -9877 0
1751 7280 -9865 0
9194 5704 -1376 0
6603 6663 -1720 0
-6694 -2133 1664 0
-7075 -9093 3865 0
3437 9341 8133 0
7357 -8530 8834 0
-3863 2243 -3937 0
-2683 -8917 3847 0
-8343 4222 -4537 0
-9137 8106 5724 0
7546 -5191 -6302 0
3280 6427 -9993 0
4634 1861 -5363 0
-6233 -8184 -1517 0
5692 -7184 5846 0
4493 -5623 -8269 0
-5680 -8707 -6417 0
-9061 3284 6263 0
5235 -7513 6054 0
1058 6215 3781 0
-9127 -6376 -8872 0
6794 4169 3437 0
-6491 -4987 7259 0
-2383 -4021 -8955 0
4790 -8370 605 0
2684 -5120 -9952 0
290 5439 -4989 0
-3322 9849 6371 0
-2671 -1694 -6164 0
-6742 9569 5782 0
2091 123 8312 0
-3031 4941 -2724 0
-3543 -7883 7262 0
3378 -8173 -4167 0
4008 -7985 63 0
3498 8845 1062 0
-3120 -5719 1400 0
5869 -3680 -6281 0
-6973 1818 -25 0
4930 -4870 -9982 0
-4515 5337 -832 0
-9133 824 -224 0
-6978 -7832 -7281 0
-6355 3590 -6583 0
6287 7988 -3676 0
-8152 -3101 -9972 0
3677 -7994 -1255 0
-5355 2899 2659 0
8941 -1215 3866 0
-6351 9636 -4117 0
-6866 -8923 -404 0
-2705 2956 -846 0
457 -4423 3300 0
-4206 -6859 8641 0
-7317 6610 -5829 0
19 -997 -1940 0
-6033 3462 1248 0
-1190 9298 -8326 0
6020 -2893 3670 0
-7176 -2354 -8546 0
1802 2636 -189 0
2812 -2140 -6762 0
-8542 -4624 -1253 0
517 9422 -7665 0
-5720 842 6568 0
-8609 7088 -560 0
454 7656 8389 0
9830 3463 -4251 0
-3640 7821 2389 0
6778 -4775 -4578 0
-8357 3886 4475 0
9681 -5191 -8662 0
-8669 88 4323 0
1460 -844 260 0
-8616 2845 -9719 0
3410 -4439 177 0
9932 -1390 1138 0
-1310 -6588 -9310 0
-816 -2481 385 0
9764 769 2313 0
-1359 1237 -1072 0
278 8717 -8664 0
8093 -9289 -4604 0
7381 -5833 4256 0
6473 5188 -2017 0
-3022 -4603 105 0
-2176 -7120 -9731 0
-6301 -762 8773 0
-1281 -476 -1606 0
5126 6075 4550 0
-7239 -3381 -9944 0
9989 3647 7109 0
1784 2410 -2897 0
3890 -5479 -9252 0
4465 -4962 -4120 0
9487 5505 -6158 0
-5209 -4903 -498 0
9833 -4961 -4641 0
-4064 -9161 -4717 0
6714 -1847 6733 0
-6201 86 2012 0
-6988 -6422 -5795 0
-5005 -2944 6970 0
-8170 -639 -6476 0
-3200 -3588 -860 0
3074 -7844 -1526 0
-7157 -5902 -1459 0
-7136 -981 -9048 0
929 9777 736 0
-836 -7368 8131 0
6989 9856 -4933 0
6588 -9165 9151 0
-102 -541 1988 0
-9068 9253 7144 0
5656 4615 -7372 0
1054 -3868 -5699 0
110 8629 -9039 0
2791 706 -4606 0
-5446 2049 -949 0
-7897 -5633 -911 0
3860 -1226 -2102 0
7469 3937 6932 0
4652 -1043 -5088 0
-2204 -5811 -2596 0
-9076 -8708 -4338 0
6642 9203 -132 0
6093 25 2415 0
-6204 -7021 9171 0
-7805 11 -4252 0
3285 2019 -4521 0
-8323 4600 7032 0
-2040 -4477 3687 0
-1198 8310 -3349 0
-7219 1722 4835 0
3855 6313 1521 0
1777 -6217 -1692 0
-545 -663 3845 0
-8086 -9883 5965 0
-1266 -3568 -4577 0
3453 -5309 -9783 0
-9651 -809 7582 0
3109 5691 -995 0
-5407 -5292 -3301 0
-3890 7822 -8361 0
-5812 8641 -7386 0
3976 -586 -891 0
-528 -1184 -4076 0
-7945 4941 -9355 0
8204 6014 5109 0
-8173 -9186 1211 0
1328 -355 2554 0
-8530 -8711 7412 0
6089 -4990 7975 0
841 -1152 -7406 0
7051 9258 -4694 0
364 -8526 -891 0
5396 1937 677 0
3500 -4583 4399 0
-815 3136 -5101 0
-8778 -9555 -9173 0
-2191 9178 -5407 0
9037 -2301 -7132 0
1096 -5309 -8928 0
4983 -5154 9917 0
-6092 5893 -1458 0
108 -5848 -3551 0
1761 -9199 4046 0
5665 2484 3220 0
-7480 -9038 9556 0
-4380 -8731 -8264 0
-7455 -8310 997 0
4311 1500 7434 0
-1347 3588 5375 0
6447 9845 -806 0
6038 -8607 6394 0
6856 5103 -9898 0
-6030 -9329 -9027 0
-6668 -7960 1827 0
-8037 -1282 -1827 0
-1976 -6885 -2493 0
-9715 7262 -9363 0
5321 -5259 -1037 0
6295 -9996 -8652 0
-8481 -2522 4157 0
-6874 7492 8788 0
4810 8757 1071 0
9571 3468 -4713 0
-5549 8539 6848 0
-2292 -8868 -5128 0
5710 -8064 -3604 0
7546 6940 7918 0
-9607 6059 -3278 0
-3208 -831 -2911 0
4479 -4659 8542 0
2384 -2873 -4194 0
-3941 -7332 414 0
-3573 3471 -1106 0
4845 7310 4371 0
7207 -8080 -5637 0
1211 -4036 -6928 0
-485 -7224 -750 0
5716 -7167 4791 0
9609 -6350 -2189 0
3128 -3097 4528 0
-3679 8588 5034 0
-5402 -5368 4220 0
-6707 7122 -4527 0
9017 -780 2405 0
9671 -2494 -8245 0
3509 8907 5114 0
-2979 -2969 6309 0
2981 -4476 -7487 0
-6308 -9750 7336 0
8553 -4264 -6223 0
-3410 4963 -8594 0
-8705 -9325 9838 0
-9778 -3337 9711 0
9604 1430 -8750 0
-5466 3967 1871 0
6298 -8053 -2665 0
-930 2116 -9367 0
716 4098 6562 0
-8782 4802 -2289 0
2984 2565 6607 0
1709 8738 -4557 0
4280 -1084 -5883 0
-4554 -7193 -6974 0
5183 -2133 -622 0
1677 8503 -2456 0
-3779 5580 6956 0
5159 -3450 -9370 0
960 1784 -5398 0
6429 6631 -3194 0
-6700 4076 -7483 0
-6008 2904 2624 0
-2740 -5835 -6918 0
-4455 2273 -6091 0
403 5065 6898 0
-759 -869 -7738 0
344 7856 -1880 0
-4664 4844 1455 0
5659 6121 -6329 0
2731 -9634 -9010 0
7276 -6706 9509 0
-7231 3191 -532 0
3858 3961 2201 0
-3841 9936 -7839 0
-999 4836 -1879 0
7660 5036 7054 0
9522 8483 -2000 0
7792 -7546 -371 0
-4953 -1206 9787 0
6937 -1253 9470 0
-8017 -9240 -8879 0
-3834 9332 -3265 0
-9406 -7036 4800 0
-9 537 4034 0
-2150 2516 1915 0
-2747 -7433 -8553 0
-9824 8137 -7148 0
9497 -6481 2779 0
8747 -8490 6734 0
-4015 -4391 5146 0
8219 2372 5859 0
3577 -5864 -900 0
-807 1705 7492 0
-4734 4181 9373 0
-2799 -8759 3151 0
-564 7280 3052 0
-6763 -8614 -9653 0
3899 4868 -7464 0
1714 -8729 4735 0
-8744 -8291 1214 0
970 -1946 -1880 0
-1162 -4339 6960 0
448 -5322 9620 0
-4367 512 -5362 0
-5269 -8070 1167 0
2696 -4929 -5029 0
-3325 5128 -9205 0
-7951 5250 3224 0
-682 -3440 7323 0
4707 5870 -6732 0
-628 7210 -9217 0
5158 -533 7406 0
9943 -9281 8629 0
-5923 3475 557 0
4860 894 -6322 0
-5203 3858 2352 0
6001 9496 8853 0
9751 4886 2209 0
865 -1936 6019 0
1716 4100 6321 0
7183 -9227 -5382 0
2035 -713 -9272 0
2803 3252 8793 0
6725 3936 3246 0
4545 -9126 2574 0
-597 5594 1012 0
-7422 8670 -5355 0
-6675 6338 3419 0
7453 7187 -2041 0
5052 3657 788 0
-5779 3472 3288 0
5288 -1181 3011 0
7968 -9960 -4627 0
9066 4900 5263 0
-3951 9879 -8053 0
5591 -2608 1724 0
-4305 6252 2749 0
-6785 -6801 9682 0
-2499 -1112 7016 0
6751 -1142 8056 0
-2687 -1471 -8672 0
-7004 -3076 -9740 0
-6910 -8619 -4087 0
-8759 1132 -4631 0
4830 8665 5916 0
-3112 -3810 -4372 0
-881 7990 5503 0
3921 -1051 -8230 0
2296 1410 7564 0
3003 4636 -6296 0
-199 -3970 -5112 0
9296 -5780 3519 0
-7270 -78 -7325 0
44 8735 -8725 0
-3068 -6071 -5473 0
7335 1250 5682 0
766 416 -5304 0
-900 -7743 -8416 0
1915 -6849 5609 0
-5641 -2531 7362 0
7517 8026 -7583 0
-4010 2522 9661 0
5838 -9869 -1057 0
9479 -9244 2699 0
9503 3886 -4375 0
-2557 9053 7823 0
718 -4045 9387 0
-8277 -7366 666 0
-5969 614 -3290 0
-397 4616 -6307 0
7983 7411 6948 0
-7703 8375 -9924 0
6260 -4144 -852 0
8907 -3113 -297 0
-9186 4449 -8634 0
-549 -701 2381 0
-9575 -8046 7684 0
1054 547 1606 0
-1363 7201 955 0
8711 7713 6069 0
-2719 -1616 -839 0
-8682 4112 -7222 0
-4805 5096 -8969 0
2334 -2457 3436 0
-9076 -6438 9165 0
-5047 6727 -3069 0
-4569 4206 -3241 0
6355 -1665 -8964 0
9384 6016 189 0
-7851 -2847 -3567 0
9627 1226 -3920 0
6852 3232 -3800 0
9813 649 9696 0
1297 164 -532 0
7807 -8595 -9183 0
7971 -7745 5215 0
-563 7581 5581 0
5141 -3107 131 0
9195 6026 5472 0
4195 -144 1838 0
1532 5011 -1504 0
327 -5137 -2662 0
-9074 -7784 -5886 0
-6017 -9432 6117 0
6171 6953 3077 0
-5326 -1434 7481 0
-7369 -9980 -7024 0
8411 -9478 -9265 0
301 37 -9258 0
6263 -954 -4557 0
5045 5956 8669 0
-6865 -7888 5219 0
-855 -462 6288 0
-237 -4257 -4751 0
4105 9291 -3098 0
-8443 -5277 1653 0
2071 -4507 -1708 0
3112 -1713 9342 0
3765 9874 364 0
-5009 -8220 3085 0
-3704 -9909 -4239 0
-624 -4785 -6828 0
-7893 -7104 2104 0
-6481 3239 2044 0
5217 -4915 -7967 0
-6710 422 -4501 0
235 -7851 -6428 0
-2950 -2642 -9649 0
7289 -906 1268 0
8714 7354 716 0
-2430 -7846 6444 0
1206 9939 1787 0
-2807 4854 -709 0
8922 6887 -1717 0
7447 5922 -3212 0
5279 353 -9151 0
-741 6877 7587 0
7132 2938 -8650 0
5427 -6030 2673 0
-885 5039 9769 0
562 -7848 -5327 0
3226 8181 -1867 0
6616 -4069 5594 0
920 4485 8523 0
7561 -2278 -5492 0
-3025 9098 -1666 0
8015 -2379 -6392 0
6260 6672 -6661 0
-7824 -5044 -3285 0
-4062 4686 9956 0
-9481 6502 7920 0
-8865 -9311 -7815 0
-1138 3962 8288 0
6266 -9669 2167 0
9853 -102 -3609 0
2749 -2745 8062 0
-6817 7649 -7568 0
6743 6453 9624 0
-8682 -8464 2261 0
5997 7112 -8844 0
-5642 5331 5304 0
8317 7933 1965 0
-4112 3736 5898 0
-3165 -2846 6813 0
-4316 6546 4764 0
9229 -3025 -843 0
6546 -3521 -924 0
1438 -5128 2119 0
-9111 2197 4123 0
4757 -9248 -3444 0
2148 8026 -1179 0
-3053 1040 6984 0
-476 -5657 3116 0
-8452 -567 6643 0
9618 3212 -9349 0
6509 -6373 5324 0
9072 3704 8370 0
-1495 6886 4199 0
-6018 -2961 2513 0
-7745 455 -5878 0
7582 4430 -1000 0
1214 -6659 309 0
6223 -2750 7075 0
-1393 -8812 4400 0
-8606 -6169 -2064 0
4277 -3446 -2403 0
8349 -4660 -4715 0
8764 -637 -6164 0
5467 6178 2390 0
-5129 -4176 2186 0
5627 1288 6153 0
-4172 -6446 -7574 0
-6358 2793 2522 0
-4001 3765 1572 0
9051 -157 9141 0
9406 1755 8425 0
7126 -2339 -8612 0
1097 6327 7656 0
-9889 7456 6127 0
-5254 -4678 -7481 0
-8920 7350 8867 0
-4394 -1960 -6965 0
-1450 6252 8631 0
-6320 1112 3713 0
2329 2791 -1806 0
-8023 2627 805 0
-5657 3497 -9107 0
7081 -6841 -2412 0
9994 -1854 6893 0
8458 452 -2192 0
-9883 4001 6661 0
1692 8845 -1196 0
-6630 40 8946 0
-9490 -5801 -2823 0
1885 -7019 5732 0
4900 6132 907 0
-587 7252 -7745 0
8257 -5577 8649 0
8204 856 8772 0
5239 -105 -3126 0
9138 -340 -1188 0
-822 -3023 4395 0
-3415 9760 8165 0
3374 -5605 -2853 0
-9460 -932 -1376 0
-3100 6440 9441 0
-8724 7194 -6903 0
-1736 -4598 -1820 0
-9862 5078 5825 0
-3009 2297 -6373 0
-2215 5422 -582 0
-2122 4824 4603 0
-3807 7742 -8877 0
1999 -1661 2341 0
-3742 7854 8611 0
-3465 -6416 -3827 0
-3999 3936 -9410 0
-5196 -9598 7023 0
-7975 7066 -7210 0
3517 4073 2799 0
-7797 -3926 -8520 0
-3383 8321 -204 0
8899 -960 -4999 0
-3262 4793 308 0
6375 -8936 6152 0
752 1247 -636 0
-3941 5666 2655 0
9481 4623 -7576 0
-4239 5833 -5999 0
4500 7790 -3730 0
2921 -2748 4867 0
-2735 7239 -7887 0
-2692 7753 2704 0
857 8121 -5763 0
-1554 6495 1538 0
8955 708 -1755 0
2415 2819 240 0
9651 1765 -3356 0
5961 -2550 4427 0
-2737 171 -5863 0
-8221 3052 -2644 0
-1266 -3574 -7148 0
-8755 -5689 2396 0
-8460 8975 -7413 0
3213 -8188 9839 0
6291 -9477 9043 0
2667 -1408 7709 0
957 -2056 5429 0
-8105 2347 1856 0
9157 738 -7746 0
153 -5125 -8302 0
-7386 -5406 4482 0
4350 6928 4148 0
-6200 -7618 8892 0
5946 3253 3990 0
4510 7728 -4521 0
-1584 371 -878 0
7120 -1570 -6658 0
-342 -831 -1880 0
6173 8007 -4414 0
-3237 -993 -9622 0
1440 1959 3723 0
-9039 8681 -8371 0
6419 -3204 6015 0
-9056 7246 -4943 0
-6176 663 -5253 0
6556 1214 4711 0
6581 -6938 1473 0
-6730 6625 4464 0
-1848 -105 -4861 0
4641 7952 7638 0
8999 6865 4390 0
6655 -5098 -283 0
1580 909 3784 0
-3943 7029 3573 0
-4179 -80 1078 0
768 -4539 1085 0
-8733 8762 -8734 0
-5172 -1364 -3707 0
-8627 6195 1358 0
-8608 -7555 -5854 0
-809 -7582 8231 0
8585 -8556 9215 0
1394 6030 5067 0
-8152 9639 7981 0
-9567 1512 -7103 0
4283 6200 1375 0
-2147 5071 346 0
6919 753 8663 0
6561 -4917 3143 0
-9052 -3376 -1349 0
-3185 -5863 -8133 0
-7211 2701 5924 0
-3294 4308 -221 0
-4036 -8863 5062 0
-6077 2391 -9638 0
6712 7902 2111 0
-9845 -7089 3815 0
1973 -7856 -6117 0
-1544 5837 3156 0
1605 -2253 -5638 0
4628 3099 -2424 0
5814 1480 -2498 0
-9817 -8055 5117 0
-5111 452 -5800 0
-5421 -9353 562 0
-2388 -6875 8351 0
1090 3596 -9587 0
2208 9594 7703 0
-2817 6621 9 0
6795 4369 -4889 0
-7131 -3103 -3153 0
1160 -9171 4391 0
9734 -6381 6869 0
-1857 5524 6572 0
-4926 -4695 1033 0
-9843 3521 430 0
7426 8396 -178 0
8555 -361 -193 0
-5663 7400 4871 0
-3950 3886 -969 0
8503 -7548 9462 0
-3442 -9168 -1966 0
-4165 -683 2648 0
-8694 6408 -5750 0
-8760 -7504 -21 0
-5701 -4663 3778 0
-8714 371 -1827 0
8824 748 7771 0
-5357 2857 8229 0
1529 7882 4242 0
3569 3213 -9019 0
1998 -5785 -7054 0
2806 -4000 2805 0
4719 -885 -7653 0
-4810 -2967 -7534 0
154 4935 -3616 0
8499 161 -7334 0
-3781 -8009 -8567 0
-5324 -9602 3448 0
6936 -4387 -2911 0
1897 -5307 4701 0
2081 -5046 -9199 0
-7424 -7780 -3285 0
1139 -1989 -1361 0
4052 1976 9012 0
7306 8423 -3972 0
-529 2943 -8092 0
-7982 -901 -2572 0
-6854 -7269 -5744 0
185 6721 -9296 0
8118 9623 7392 0
9537 -6497 -908 0
-2287 6039 -9703 0
-6616 -6420 5545 0
7159 7523 6226 0
-1065 -6783 -4933 0
9067 674 -6677 0
8752 9364 -6307 0
-7688 9440 -9372 0
5951 -7371 -6919 0
8781 -6273 -2245 0
5683 5556 -1172 0
3455 9115 -5936 0
-5905 5937 -36 0
-4458 -20 -9606 0
46 -3362 255 0
-1402 -601 -8329 0
5970 -5930 -6048 0
9347 -3848 3645 0
-9529 2899 -3929 0
-5212 -747 872 0
-1933 -4829 -751 0
-9563 6142 -4285 0
-5717 -2939 4889 0
5019 -1200 8630 0
-9429 -3704 -1724 0
-8142 -1747 1027 0
5911 5238 -6463 0
-8185 9708 1091 0
3800 -1408 -19 0
1526 -5331 6533 0
7074 -1223 -4089 0
-1675 7540 3079 0
9857 -80 -9301 0
-2715 339 -4166 0
6195 -4354 -6537 0
6719 -3142 -8624 0
-595 -8220 -3508 0
8282 -6835 -184 0
-3005 -2356 739 0
7397 7285 8532 0
-8333 -3077 -8405 0
-6010 -9327 -1786 0
-5632 -4497 8336 0
5055 3051 4086 0
-7695 -2792 -4609 0
5796 -9541 -743 0
9149 -3286 135 0
-9796 55 -7832 0
6920 34 -9082 0
-5605 -2835 2781 0
9088 252 -8892 0
9081 -7640 -5865 0
-414 -9485 -4123 0
2450 -6023 985 0
-1559 -290 3629 0
6592 280 -3413 0
-2720 -3273 7870 0
9390 -9623 -4237 0
5524 9202 7860 0
-1123 -8041 7681 0
4323 6494 -3178 0
9972 50 -3242 0
4777 935 2156 0
8836 -5992 -6831 0
6457 -2037 6857 0
3663 8794 -3828 0
9585 3397 5717 0
-7691 -7617 -7556 0
-7153 549 4822 0
1788 -7302 6953 0
-2126 6031 5989 0
9619 -7773 -526 0
836 -9820 -5780 0
734 -5813 4645 0
4132 -8734 1030 0
-4157 3873 2778 0
-3847 -1668 6095 0
410 2854 -4544 0
-6119 -4623 8620 0
9669 6808 1615 0
-200 9902 761 0
9415 6994 -2706 0
-9248 6247 9842 0
-8591 8113 6197 0
-8701 -9533 -96 0
-1611 6811 -9319 0
-6761 7278 -6208 0
9436 9159 -2318 0
-6249 -3743 -4298 0
-1158 4425 9937 0
-9601 -7769 7593 0
-4012 9031 2727 0
7708 -417 7099 0
6139 8486 -4963 0
421 8343 9967 0
443 5406 -5564 0
9946 3915 -711 0
-3218 -6681 -4513 0
7261 -7198 8905 0
-9352 1704 525 0
251 5509 -5023 0
6572 9795 2748 0
-789 7524 3720 0
-5810 5636 460 0
902 3913 -1839 0
1108 -2234 -3917 0
-2830 -9325 6842 0
1111 -5766 3407 0
8269 9959 9912 0
-4129 3671 -102 0
-8079 3441 -8916 0
8182 4434 -7275 0
-6612 -4329 -8736 0
9438 -6693 -6989 0
6816 -5492 -3139 0
-5077 -4306 7224 0
3473 -2199 7616 0
6557 895 8745 0
9888 7691 -3880 0
-623 -4721 8346 0
-2873 -5919 -6149 0
8528 7279 7874 0
5461 -6224 -2886 0
-7209 2531 659 0
6726 8834 -5527 0
2328 -1256 6395 0
7387 -2366 -1613 0
-4239 -66 3737 0
-4312 8392 2180 0
7482 -9234 -6290 0
-5527 2445 -9309 0
4718 5200 394 0
-3248 8560 -6618 0
-5355 5827 2807 0
1092 5785 -7869 0
-7384 -9291 -7049 0
-6997 -1183 6577 0
-8320 4642 -2143 0
-5649 1408 -254 0
-4782 -3642 435 0
900 7279 5866 0
7925 -6217 -3370 0
363 -6155 8507 0
4391 -5802 4770 0
-3474 2195 -1316 0
3676 8695 -1394 0
-5734 -5558 -6611 0
-4883 6222 1873 0
-9175 -6117 2596 0
7939 908 -4764 0
9593 -9164 -276 0
-3256 4797 7536 0
-1383 418 1360 0
-249 3315 2112 0
-4689 -8853 9407 0
-2706 8659 6589 0
-5842 -6188 999 0
-1225 -8420 -6054 0
3603 -3795 -3633 0
-1689 -6230 906 0
-921 -3841 8764 0
-947 -5579 3803 0
3440 8453 1994 0
-1264 6174 9969 0
-6706 7454 5499 0
-7204 7119 -44 0
2626 -1208 2147 0
-1795 7455 6045 0
7251 -4737 9825 0
-6006 -9124 7550 0
-2869 1594 -4614 0
-481 -6073 5736 0
3900 -1125 7286 0
2729 2144 -1528 0
-788 -9935 -1569 0
6400 -5238 -7806 0
-5880 -8424 7677 0
4226 -6835 1141 0
3920 1857 6121 0
6272 -3620 -8834 0
1101 -2899 -2167 0
-3426 -5189 2130 0
2545 1250 3838 0
-2784 -664 6899 0
-3573 1013 2261 0
-9131 -5603 3351 0
7861 -1685 -4729 0
-9150 2046 787 0
9213 2566 -8658 0
-9040 1986 -1594 0
3043 4962 5686 0
-2411 7435 -6223 0
-7708 -6451 -1284 0
1951 -7941 1865 0
-5258 -2475 -370 0
1565 -8786 -6657 0
-9042 -3550 -2117 0
2276 -6031 -4832 0
-9589 1872 8188 0
-2120 6393 1724 0
8011 2039 -9595 0
-885 -6529 -6120 0
-8849 -4741 -3575 0
-4973 3982 3630 0
-343 -4416 5666 0
-3225 -7895 -1698 0
-8844 -6246 -1366 0
4339 -5947 -994 0
521 -2492 4136 0
-993 -6101 4721 0
4297 2426 -7967 0
-4735 -2389 -9703 0
-4291 -6269 -6452 0
-4815 -4037 229 0
4084 -4241 7364 0
9626 3897 -1759 0
-3551 -1358 9739 0
-1496 -9500 7731 0
-407 -3510 5722 0
7839 7443 -271 0
9445 -9141 6754 0
-4625 -1855 -258 0
2100 1660 -3998 0
7298 8763 -2049 0
-8075 -2626 -5709 0
4584 -9080 4323 0
-4236 2151 -3753 0
-7583 -2045 -2970 0
2433 -4426 5137 0
5915 458 -9801 0
4695 -303 4639 0
-9429 2313 -7465 0
700 -3764 1077 0
7019 722 4336 0
4621 3168 -5532 0
-5047 6722 8053 0
-9737 -5602 -5284 0
9403 -1520 -4807 0
710 3860 -9481 0
9587 3764 -9733 0
-2142 1242 -2213 0
-4838 -1828 -4659 0
7958 -9467 -164 0
8290 -4736 -5189 0
835 9262 -9903 0
349 2322 -7070 0
-7287 8983 5383 0
-3710 -8395 -8722 0
-299 617 8619 0
-456 -7695 -4300 0
-6560 -5551 7822 0
-7502 -1199 7678 0
3107 -5160 5427 0
-7110 4168 7458 0
5309 -9791 8819 0
-809 7040 936 0
5570 3655 -2434 0
8588 1845 1057 0
2189 170 -2825 0
-4591 9345 8765 0
-4949 8156 -5940 0
-8618 3517 4147 0
-5413 7269 -8963 0
-8292 -7465 7721 0
6681 707 -3530 0
2475 6798 -1122 0
5224 753 -9658 0
-8182 2944 3192 0
3350 -8609 7929 0
4556 -8023 1050 0
-8880 4466 8661 0
1820 796 2883 0
39 -116 -3180 0
-1034 9360 392 0
2794 7960 9684 0
6821 4492 303 0
4207 -3567 -870 0
7692 -2176 -6263 0
-416 -1403 -5572 0
6091 -3075 -2097 0
4056 4588 8474 0
-74 -8273 -4996 0
-8737 4783 -5793 0
5360 1101 1444 0
-2075 8757 8912 0
2177 8604 -8140 0
8484 7562 8321 0
-2155 -6468 -7 0
5928 -6863 -7479 0
-3965 1080 -2358 0
-6490 9311 -9516 0
6521 -3475 1600 0
-6478 8442 -604 0
-9037 4417 6096 0
-3880 -6286 6610 0
-7835 7120 -8505 0
-4191 1340 3929 0
-887 -6787 -7339 0
7167 -4251 -575 0
4429 -3149 -9418 0
4383 7699 -2349 0
3483 6761 -1327 0
-9951 3867 7562 0
-7376 1389 -5696 0
1404 -9972 5781 0
9052 3347 8330 0
-9986 -3306 5919 0
8869 27 9368 0
9796 -7030 1285 0
3244 2991 3046 0
5000 9671 8660 0
-6188 -6578 7144 0
-924 8543 -4803 0
4383 5930 1708 0
6988 -6791 1624 0
-4003 -6737 1607 0
5121 8300 4347 0
8283 6254 7235 0
2212 -599 1769 0
-3731 7803 6786 0
-8405 4727 9621 0
6015 -6481 -7154 0
1236 8667 -7602 0
200 1883 -5968 0
-7278 9828 -2161 0
-5367 5263 2443 0
914 -8025 892 0
-7300 -1835 4076 0
-5444 -6970 -5258 0
601 -3090 5115 0
-1732 6938 9615 0
-3103 7641 482 0
2461 -7934 -9367 0
6617 8665 -8041 0
9267 -5708 -4813 0
-8969 2994 -4770 0
-3904 -354 -1532 0
1468 1585 -2107 0
-1229 5650 788 0
4211 3009 -9308 0
-6606 3793 -3146 0
-2526 -4495 1929 0
3081 369 2934 0
3378 -3655 3323 0
2835 -9362 685 0
-7095 654 -768 0
-5790 9781 -1261 0
3039 -2102 -9521 0
1802 1126 3998 0
1576 -8056 5447 0
9012 -3086 -5646 0
-7839 -4620 -977 0
6679 2536 -5832 0
4352 -7601 -3378 0
3427 -4256 7616 0
781 -8158 -5165 0
-3451 -3813 -1352 0
1470 6738 2323 0
3386 417 9563 0
-4044 -3217 -100 0
-7240 2302 7921 0
-2673 -3180 2411 0
-564 2867 639 0
-984 3692 4675 0
-5923 2511 -3574 0
7889 6606 -9181 0
4097 644 -8614 0
1390 -9606 1795 0
-3615 -5476 5118 0
3992 8078 3385 0
-4960 -9610 9985 0
-2997 1841 4049 0
-1461 6690 -1279 0
-6223 -186 -3143 0
3245 4591 9577 0
2687 3003 -2257 0
5864 3663 5017 0
-3411 -4288 -9450 0
-4931 -2419 8404 0
-4285 4693 977 0
-4687 7809 -2714 0
-6449 -2645 -6507 0
-6131 -4854 7465 0
-8252 3692 -3180 0
-6908 -3973 7109 0
-1031 -3594 586 0
-5632 4652 86 0
-3407 -2023 7899 0
-5312 -1120 4808 0
2292 -7394 9656 0
6672 6350 7824 0
329 3309 874 0
-2886 -1375 9986 0
-2500 -603 2183 0
1702 4602 4136 0
-1412 1145 2804 0
-996 9475 -5859 0
3985 -8971 4782 0
-6648 3704 -5418 0
-6218 -6442 2737 0
-7037 1911 -1274 0
4842 9792 -4615 0
-1773 -1937 -8911 0
8821 -3139 4078 0
4879 9101 -4596 0
9760 -3927 5391 0
-1035 -3692 2524 0
-8159 -2730 -6275 0
3365 -7572 4079 0
6910 4913 130 0
-6025 -7362 6735 0
-9106 4144 -5283 0
8667 -5760 -4620 0
8077 4505 3648 0
9333 8932 -154 0
6828 -5619 9341 0
-8573 -2876 4455 0
2250 5364 8459 0
-7526 -1238 6926 0
3253 -7433 5625 0
8021 -4675 7972 0
-1325 2837 1978 0
9517 -6476 -7672 0
6698 -5505 -3999 0
-7376 -172 7215 0
-3198 -9420 -2643 0
-9305 -5999 -4152 0
5045 2367 -1578 0
9454 1807 5610 0
8834 8198 2575 0
9687 -196 5867 0
558 -1112 7304 0
-983 -9681 8253 0
-1680 5246 -8606 0
-5537 -1247 -7831 0
-8982 -6256 -241 0
-3931 -7814 -8628 0
9828 -2263 6103 0
-1768 995 -9651 0
-6691 -4429 -1440 0
7404 7982 9961 0
-9054 9807 -7134 0
6832 -2489 4205 0
-5399 3850 -3362 0
-6103 8674 3736 0
6494 -5039 389 0
8677 266 9779 0
-4745 7559 854 0
-7622 3996 -779 0
-4263 6642 5903 0
1055 -3717 -5819 0
-1976 -1171 7154 0
9010 9061 1718 0
5579 128 7965 0
9081 5041 4846 0
-2049 8991 -9718 0
-6234 -2462 -3031 0
-6301 2387 -7897 0
1813 -2634 -1548 0
8837 9927 8565 0
3395 -4283 -4619 0
-3841 1050 3851 0
1072 -168 -6996 0
-2721 1430 -2861 0
1129 -4849 2761 0
1298 -3665 -1090 0
1565 9492 1118 0
8394 3231 2293 0
7892 6732 744 0
683 -5987 -8729 0
-2563 -1267 -9698 0
4662 2854 7724 0
4757 -4316 -6721 0
-7628 -755 8577 0
-2384 2197 4626 0
1743 4590 -8375 0
6038 -3338 7985 0
-8014 -9728 -4392 0
1358 -3497 -7348 0
-5566 5805 3439 0
-7661 8990 -585 0
9557 -6120 8815 0
-45 6521 8415 0
3530 -8851 -1743 0
9541 -9147 7668 0
4096 -4909 -911 0
-2145 -7104 -4759 0
7977 1084 -9957 0
-4471 271 -3370 0
-5376 8241 -449 0
5874 2838 -8183 0
-7592 6254 9415 0
-2396 8886 6033 0
-3468 7789 5518 0
-2173 -5798 -403 0
-7758 680 9001 0
9897 -781 -459 0
1774 -3348 -1634 0
1371 -311 -9768 0
-7174 -8561 -371 0
-4113 -2036 2111 0
7660 -5014 -5980 0
376 4158 7231 0
9035 -167 -3294 0
-3365 -4080 7302 0
-6762 1583 334 0
717 5391 8539 0
-6365 1325 1051 0
-8531 7878 -5241 0
7185 -6252 2946 0
-5357 4767 -2888 0
-2345 5999 -6589 0
-5930 1756 3144 0
-93 7193 -36 0
8826 3812 6713 0
9685 7452 6735 0
960 6949 -3533 0
4047 -519 2715 0
9619 -932 2015 0
3556 6168 -6116 0
-2714 8598 4167 0
6918 7750 -893 0
5443 9463 -397 0
-9201 2871 9443 0
-2641 6558 -4857 0
7343 -9836 -6041 0
-7901 5023 1945 0
-7277 -6864 6129 0
1668 1904 121 0
-3900 8889 9895 0
4854 -7743 -1582 0
-1751 1552 -6405 0
-9916 1947 5945 0
3903 6050 8270 0
-6322 -4014 -3813 0
3046 -1085 -5864 0
-1644 2200 5543 0
6286 -7200 -6750 0
-357 -196 -1768 0
6956 -5393 -6041 0
8549 394 -7475 0
6270 9806 28 0
-1896 -6896 7114 0
-9133 4578 -5455 0
7069 5836 5432 0
7499 8411 -4819 0
-6906 1397 2274 0
159 9492 -6156 0
4714 164 -924 0
9579 -9447 -3341 0
-7245 -1243 2163 0
-6121 7069 -8256 0
3604 6559 2770 0
-827 8728 -7344 0
6919 -4902 -1240 0
5663 -3830 2329 0
504 -2285 -8240 0
-6351 -2356 -5662 0
-2459 9613 5736 0
9033 6224 5949 0
5855 8272 -9001 0
7885 -7263 1082 0
7515 -247 -6843 0
3881 1156 -4226 0
-655 -8866 -6945 0
-1699 2923 5154 0
-726 -4907 -1600 0
-2656 -5775 -9246 0
2532 5649 -4290 0
8726 2218 6567 0
-233 274 2287 0
6205 -7039 8020 0
-4680 7938 -6890 0
-414 6677 5616 0
1377 -9038 -7551 0
1889 -8498 227 0
-9644 -9966 4551 0
4998 8191 -5692 0
-6898 -817 8065 0
9499 8503 -4406 0
6404 -4880 -6056 0
-2600 796 -145 0
-7314 -1833 3808 0
7134 704 4314 0
8825 8513 7727 0
4351 -2304 3768 0
-5981 482 -4031 0
-9368 4138 -9198 0
-1769 3576 9499 0
-8228 -3680 7144 0
-3454 -7405 3434 0
4087 7928 -6311 0
4976 -4803 7353 0
-7024 -9681 443 0
-4768 -938 5536 0
6865 7724 4367 0
5797 50 2943 0
465 5736 3187 0
8410 -2290 -8421 0
4979 -9636 -4421 0
-9704 5351 1640 0
-9757 -6586 3503 0
9529 -3807 6334 0
-7469 1390 -7495 0
6099 4896 -2998 0
-2259 -5577 -7328 0
8692 -3702 -9907 0
-2149 8178 -1529 0
3526 2682 -4015 0
-1183 -8320 -3733 0
-587 2167 3854 0
-9524 1698 3865 0
497 -3580 8694 0
-9208 -2707 -5539 0
8079 -4753 -3511 0
-1887 -5752 -4764 0
-9656 -8601 8844 0
-3600 4 2357 0
6846 5063 -7873 0
-485 -7351 -9963 0
-9803 -4416 9000 0
-6385 -5482 6319 0
-7957 -6834 733 0
6121 -9014 2353 0
9302 4109 -866 0
-5041 -7132 -8035 0
5564 8137 1778 0
8888 -8273 -9539 0
-7009 -5040 6139 0
-7092 -1074 -1479 0
3184 -2809 -299 0
6112 -2515 1290 0
2469 141 -7803 0
-5238 -7928 -229 0
-6925 -1010 4212 0
-8127 3418 -1196 0
-6607 2211 2309 0
-5138 -1957 9030 0
7147 -8384 5125 0
-5302 2092 -8827 0
-2557 -2612 8300 0
-2107 4712 -8203 0
4196 4387 -6192 0
-7289 -4702 6607 0
2075 9306 -7519 0
-8483 7641 4137 0
6404 1229 8362 0
-8406 -8511 -7909 0
-358 412 425 0
-4538 7359 4524 0
5015 -4228 7403 0
6742 1011 8957 0
-904 -2495 7258 0
2751 -4759 -9688 0
8101 5998 -7168 0
-3065 -2591 3651 0
8786 8857 -885 0
-9416 8939 5031 0
9638 -91 -7830 0
-9606 5733 -4688 0
-7454 -8308 9079 0
-9919 2508 -3668 0
-9520 9016 4180 0
-2464 456 3182 0
-5695 -9185 3409 0
-6904 -9048 8983 0
3158 8818 9658 0
-5878 1124 992 0
9383 786 -5771 0
-4074 3614 524 0
-1530 2328 -6782 0
9852 -4893 1798 0
-2890 7404 1910 0
-6774 5247 3688 0
1652 -7495 1445 0
-1642 7728 -3568 0
2542 946 1480 0
6923 -71 -5560 0
-9997 9863 6372 0
5267 15 -2871 0
-6969 -8690 -1820 0
-9498 4834 3181 0
-6626 5867 -52 0
-3911 4236 -3617 0
6745 3050 -5046 0
3267 -1214 -7991 0
6139 -9180 1772 0
7366 9258 -6305 0
-9323 -7299 7114 0
872 366 385 0
8962 9596 8031 0
-533 9065 4676 0
-4586 -515 -3986 0
8601 -2269 8137 0
-9445 -7501 4212 0
-8644 -9552 971 0
-7007 -4246 8607 0
3014 439 -604 0
517 934 8238 0
9570 -572 -5406 0
-7758 -3946 -3961 0
7917 -9209 -1889 0
-6831 206 -5517 0
4138 128 3982 0
2606 -9268 5405 0
-9154 2204 5336 0
-5889 3483 -2794 0
7537 -6561 -7063 0
-9642 -6507 -4390 0
-9577 3230 4046 0
5728 -4635 -6763 0
7534 -3858 -5735 0
-3703 -8133 8913 0
713 -2202 -8104 0
1631 8797 -2194 0
7649 -5792 9369 0
3028 -3015 -5654 0
9675 -3178 -4297 0
2698 3940 -9968 0
-5114 -1630 -8285 0
950 4508 -2567 0
-4173 5366 -3563 0
2996 7657 5589 0
4095 -6006 -7930 0
1093 8423 3065 0
-6184 1422 9754 0
-4877 6200 -6821 0
-9954 4049 -2258 0
-8516 -4011 6110 0
-8047 -1180 8568 0
9023 -2060 -4843 0
3067 -2893 -5583 0
-872 -4191 -474 0
9409 1536 2256 0
3949 -6952 -2396 0
136 8948 1685 0
-7014 -2099 -996 0
-3805 3759 -3358 0
-9082 5390 5238 0
5688 -3552 6888 0
-1690 4463 9916 0
1085 -6154 3219 0
9298 3250 2441 0
8096 4705 5282 0
4780 -7011 -217 0
-7602 -4387 937 0
-7810 7457 -3417 0
-3367 -2525 -315 0
6113 9255 7922 0
6918 5667 48 0
-7060 -9336 3727 0
-8082 7628 -3016 0
7347 -533 1422 0
-8308 4960 4682 0
-6799 -2835 1555 0
-7336 9767 9953 0
-4723 8890 2016 0
8750 -1980 7634 0
2905 -7865 1571 0
-9764 5686 -5400 0
9868 -3511 -7267 0
5790 6765 -611 0
7979 -1068 7733 0
-5446 1150 3739 0
3024 7986 -7994 0
3569 -3671 -5167 0
-5798 6352 -8829 0
3960 -4086 1142 0
-4714 -6510 -9875 0
-5267 8559 -6215 0
-896 524 3349 0
5664 -9400 9830 0
8027 -1580 6153 0
-6683 -6887 -7694 0
-7846 3027 -499 0
356 -2570 7808 0
-8213 -790 5781 0
8529 8639 -2167 0
-4068 -9109 9590 0
6767 -9144 4586 0
7690 1995 1474 0
-2535 7304 7840 0
-8755 8618 -3305 0
-7240 3274 -786 0
-7996 -6926 -7238 0
3780 6324 7163 0
-2628 3116 1215 0
-7065 7089 8893 0
981 -9669 -596 0
-6322 -7786 -5629 0
-5312 4957 6810 0
6448 5535 5804 0
-895 2368 -8406 0
-7549 -7323 -3699 0
6343 6295 -4033 0
1472 5658 6379 0
-76 -3659 -2829 0
669 3678 3080 0
7670 -1124 2175 0
6654 -6683 6589 0
-4411 -3469 6904 0
8458 3201 8704 0
9958 8707 4962 0
8754 3080 -4335 0
2262 2459 -924 0
1035 -6243 -9855 0
1478 -9540 -955 0
-2006 7446 -3862 0
-2322 -751 -4673 0
5096 -30 3748 0
8873 -3479 5700 0
-3282 9887 6150 0
-2515 3558 3078 0
-4400 2644 -2829 0
-383 -226 2151 0
-6342 -4457 7142 0
4924 9378 7121 0
-9910 2920 -8572 0
-162 -6094 2324 0
-7324 4437 2612 0
-8180 -3499 9963 0
7552 -8631 7476 0
-7570 -7135 -4598 0
7371 -911 -6497 0
-3514 6489 3565 0
6819 6722 3267 0
-5055 6103 9601 0
-9106 8573 4067 0
2474 -7746 3147 0
4059 -8923 4624 0
-547 8679 -3617 0
-6200 -6938 -6883 0
-8756 6703 -3243 0
-8818 6319 2864 0
-9039 3123 5426 0
559 154 -1757 0
-7097 8588 1076 0
-8420 -6088 -8541 0
1016 9000 8592 0
6917 -6620 4947 0
256 -7816 -2722 0
8636 -7608 4382 0
-158 -112 -5289 0
-9099 3587 -4203 0
2779 -4856 -4692 0
2221 4957 -1016 0
1225 -5625 9928 0
-4082 88 -6469 0
-342 -2623 2521 0
-1074 -4976 -8612 0
-547 -8853 -7819 0
-8203 2533 -5773 0
4733 -2810 7022 0
3904 -5739 -112 0
6931 9010 2873 0
5197 9253 -7368 0
-303 2833 -4777 0
1932 1074 -1054 0
2743 -7780 -7686 0
-2669 1268 -3186 0
7865 375 -6537 0
7278 -2943 -7067 0
5105 -3688 -1531 0
5656 3751 2211 0
9264 4036 4143 0
369 2244 -3157 0
1024 7529 -5654 0
6431 7053 -1007 0
997 -1193 -8955 0
-3936 918 -9947 0
4274 -6812 1906 0
7072 8385 8191 0
1928 -9745 6775 0
5148 8444 4183 0
-2940 -4720 7096 0
1993 -5660 3244 0
-87 1040 1050 0
199 273 -7489 0
-3108 -1018 8611 0
9752 -2958 -4391 0
-3523 -7298 103 0
-8788 5023 356 0
4323 5269 -6238 0
2796 -9350 4348 0
8400 7142 -4351 0
-3700 -7916 -6200 0
9617 -7493 -6390 0
8237 -9027 -5966 0
2156 -2742 7719 0
-5726 9675 7650 0
-1951 8764 -2755 0
-7013 2451 -220 0
-9490 -148 3247 0
5269 2569 4347 0
7261 3943 8107 0
-3402 -7131 639 0
-7119 2763 -1670 0
5419 -6782 3696 0
435 7345 9379 0
-7607 -3727 642 0
93 3147 9208 0
-635 3779 -6725 0
-1673 -1069 7346 0
3683 392 7946 0
224 5195 28 0
-4572 6528 -5215 0
8150 9104 3446 0
-1804 -3363 8992 0
3474 -1495 -5513 0
4920 4328 -7042 0
1091 1092 8716 0
-6640 -6288 -9240 0
-4385 8255 5375 0
8665 -269 3015 0
-1444 -868 6744 0
-648 3634 -7385 0
-4370 -7907 7950 0
-8580 -1562 -8034 0
5088 -388 -6756 0
-5361 -5690 -3405 0
6761 2023 -2386 0
-498 -6784 5632 0
-7132 6866 -4093 0
-3270 238 -5687 0
-1618 -5816 -3665 0
6634 -3685 -3972 0
6155 -7561 6503 0
-9138 -1063 5590 0
1636 -5501 1777 0
6297 9274 5002 0
5630 8461 8894 0
7864 9256 -695 0
29 -309 3660 0
5907 2299 -8301 0
-7290 4886 4129 0
-9466 -2212 9248 0
-37 -5439 -5092 0
4299 2425 -9938 0
-9751 -5026 1884 0
7506 -9824 -6381 0
4507 -9494 -1284 0
-3254 8460 -203 0
-4471 3223 -2646 0
1435 3591 -526 0
-8125 6749 -5984 0
-7756 -9875 3718 0
-1508 4111 4845 0
7867 -1364 7791 0
5504 -276 -4862 0
-9939 8177 7928 0
7446 -8535 -8617 0
4983 8567 -7829 0
-7767 -6986 -9006 0
5080 2193 5843 0
4188 630 -5702 0
-9932 -8255 9768 0
-9741 -1648 -5731 0
-7642 635 -5279 0
-5855 3301 8159 0
7027 4782 6100 0
8396 4539 -7858 0
1491 4898 -6971 0
-8861 4796 7684 0
-5765 -2319 -2654 0
3162 3076 -3075 0
-7140 -4185 4409 0
399 -3189 7325 0
6069 2260 1127 0
3432 -2231 2971 0
-1283 3694 -9860 0
-6822 6652 -4557 0
7992 -3361 -5100 0
-5729 -2974 1179 0
-5212 4979 9649 0
-2144 4748 -8192 0
-567 -3872 -8978 0
-7982 1505 -7589 0
1634 5847 -8004 0
-2964 699 -7868 0
749 -7133 -9844 0
-7975 -1483 -5133 0
7433 -6536 4126 0
-5957 -7066 7440 0
-6131 -1735 2654 0
9661 -6585 4706 0
-6903 2554 5196 0
444 4569 2102 0
-2468 505 2239 0
-9714 7328 -3389 0
-4042 -5084 -4039 0
-9184 -5362 -4493 0
-1144 8380 3768 0
5984 -7920 9811 0
-8416 3939 -9290 0
60 7806 3522 0
2377 -3331 5682 0
2552 -2142 9420 0
-1756 -972 7349 0
9184 641 -3462 0
-7534 -9386 6769 0
-3831 926 7129 0
4437 -1122 -6637 0
4982 7550 472 0
-950 -8712 6888 0
-4334 216 3346 0
242 -2217 -5628 0
-2772 7649 -2633 0
-4964 -603 2837 0
-9405 -8849 558 0
4023 -2078 6528 0
-9224 -8737 3106 0
-3359 1434 1556 0
149 6142 1732 0
4196 3968 6413 0
-875 -3215 9710 0
-8698 -9411 9425 0
2867 6244 4958 0
1630 9383 6021 0
7424 -9190 -8902 0
-2996 2947 6660 0
9429 5133 -6732 0
7781 -6672 4117 0
4932 -1508 6144 0
5493 2331 -5666 0
283 -1998 8585 0
-8047 -5919 -6026 0
206 -5851 -6573 0
6619 -9057 2777 0
547 236 9367 0
4956 6115 -341 0
4978 -856 5286 0
-579 -4395 -3656 0
2709 1832 -4534 0
7463 788 8834 0
2232 -8304 -4650 0
2135 127 -4561 0
9397 4835 3179 0
8336 6997 -489 0
-917 -5879 -3384 0
-7085 6577 -1349 0
-7807 -9520 4626 0
142 -7839 -6303 0
4328 -1236 -6127 0
-5062 1583 -5750 0
2843 7349 -6898 0
4146 7898 9558 0
2427 4127 2664 0
2533 8199 3276 0
2827 -2460 -3528 0
4959 -9173 -5980 0
7051 3686 8542 0
7596 -545 -6546 0
-8142 -5928 4920 0
1035 3039 -3026 0
6141 3624 8529 0
-5520 -2442 -9195 0
7446 9151 -6234 0
8726 7881 4697 0
7109 2213 4647 0
-2830 5053 4389 0
6219 -9522 2353 0
9336 2709 7134 0
2834 887 5097 0
-4240 -7562 -255 0
-8199 6167 3082 0
-9858 4387 -5459 0
-3813 8668 -6746 0
-9941 9763 -9173 0
2930 -7840 -6929 0
-9692 -6613 -7366 0
-3217 -9754 -2144 0
-7244 -5714 7610 0
3587 -4031 8417 0
-2544 4459 -4808 0
8554 -324 6610 0
-6062 7149 -8708 0
8832 -4176 -5214 0
4207 2623 -4144 0
5301 1622 -4855 0
2419 2286 -2791 0
-1522 -5702 -7600 0
-4115 4556 9044 0
-6768 -3506 2209 0
3481 -1909 6371 0
-5772 -98 -2231 0
-9990 8070 9554 0
7196 2637 -4597 0
-7918 6352 -6568 0
4104 643 -3588 0
-6102 -2103 9651 0
947 -3837 4101 0
-9150 4816 966 0
7577 -5054 553 0
-2227 -8591 -5811 0
1019 8849 -2786 0
-8164 -5618 9865 0
-7120 8119 9361 0
6665 6383 -9998 0
7528 656 -8303 0
9220 -2813 -6767 0
-4559 2920 -9899 0
2562 5974 7100 0
-5494 -9508 7229 0
2162 9416 -1843 0
-6570 6260 -436 0
2084 -4415 8329 0
200 -8634 -8350 0
-4360 -800 -3619 0
7280 -6924 -6277 0
6158 -8888 3561 0
4442 5243 -575 0
-4872 527 5983 0
7613 1516 -2829 0
863 -4905 -4315 0
7214 -4290 3725 0
5601 407 -8397 0
7365 -3120 -1878 0
-2666 9290 -1621 0
3429 3346 -4495 0
665 9267 -3721 0
-9797 -2671 4112 0
3487 2051 -5121 0
2330 -113 5060 0
1056 4989 -3818 0
-6742 6736 -1528 0
4546 -9939 -4969 0
3023 513 -3446 0
-9074 657 9117 0
6926 -4807 9131 0
53 -8544 6186 0
-5650 4460 4892 0
5331 -292 6331 0
-5108 147 -7381 0
4849 -3173 1628 0
9603 2110 9255 0
-6845 5864 -6851 0
-3841 4475 -6181 0
-312 -56 -3948 0
6626 1055 -3329 0
-2704 -6964 -3539 0
-8030 -1884 4226 0
-8760 8676 -6456 0
-6020 8571 402 0
-5772 7453 2084 0
-9239 7517 3059 0
1237 7694 -1106 0
-3997 -4600 7541 0
6062 8524 8416 0
-54 8240 8376 0
-5091 -5233 -8813 0
-4122 -107 9919 0
6780 3375 5785 0
-259 -8701 -328 0
7399 9487 -44 0
7473 -4427 4320 0
286 -6030 6056 0
563 4154 -6682 0
-6895 9568 -6617 0
-4098 1488 3414 0
-4709 1171 -4742 0
2170 2317 -3380 0
-3808 -5487 -1417 0
2738 5450 3943 0
-4006 -4636 -616 0
5920 -6670 5077 0
7433 -4318 -8376 0
3011 2408 4566 0
4697 9660 -2792 0
-2382 3305 5158 0
6674 7212 -3454 0
-3828 -7740 3445 0
2535 -658 2290 0
298 3450 9165 0
-2533 -8050 8915 0
-668 865 993 0
5125 524 -7750 0
1708 -8045 5480 0
8195 -9050 5984 0
3601 -228 -9834 0
4 -6995 7846 0
3310 2656 -3491 0
-2878 -685 5185 0
-4710 4254 -9550 0
-8069 7762 -3069 0
-7687 -8620 -6106 0
2506 -7992 4549 0
3790 1166 -923 0
3836 2423 -5300 0
1302 -5486 3272 0
-2517 5188 4666 0
2255 -3566 -1469 0
-6127 3529 -4003 0
9075 7255 -1532 0
-5706 4836 -7294 0
-3694 1808 846 0
-5474 -2105 -9523 0
-1582 -9253 965 0
-3399 318 -5635 0
7938 -1984 -3624 0
7635 -8101 -8765 0
4025 -4547 -1522 0
7251 1385 -7184 0
8204 4867 5359 0
1382 -1440 -3832 0
-6137 -4424 -3959 0
-8179 2595 9835 0
326 3262 7001 0
7735 3042 4533 0
-1062 568 7929 0
-2352 -6512 1618 0
4502 8688 -7879 0
9466 7619 -4963 0
9067 9720 -2364 0
-1759 -7536 -3981 0
1357 3178 987 0
-9750 4085 7361 0
7481 4566 -4971 0
-4425 -2958 9316 0
-5713 7110 4064 0
-9287 1217 -5301 0
-4165 2506 601 0
1663 -6799 -7399 0
3065 -4572 6943 0
1662 2832 -3430 0
-3790 -8931 -1590 0
3188 -5824 -3978 0
-849 -9393 -1573 0
8852 -7744 -9618 0
-4320 1518 3046 0
-8988 6663 -1220 0
9377 -6713 -7752 0
3383 -6811 -6018 0
-9526 -8354 -3617 0
-2195 4642 8548 0
-2474 -8436 -5416 0
-218 -5419 -8347 0
-1219 -5955 -2646 0
-9149 -3065 -1347 0
-4851 7721 -4810 0
-5752 -6854 3930 0
-6893 9939 6219 0
4745 6474 -961 0
-5290 -1687 -8035 0
8294 -1082 3078 0
-8881 3497 -3681 0
1412 9856 -8376 0
5904 -5853 -9496 0
5015 6686 8639 0
5990 -7953 -8476 0
-4455 7407 58 0
6282 5096 6701 0
2472 -1323 8919 0
-4337 5692 -5266 0
-7745 1432 9707 0
-2115 9084 -9163 0
-3001 1950 1153 0
5893 7957 -1407 0
1640 -6503 -923 0
150 -2272 -825 0
7105 8734 2007 0
-7738 6038 -4394 0
9307 -43 5368 0
9179 -5868 3345 0
-6602 8419 -4027 0
1358 6796 5904 0
-7820 -1546 1086 0
-746 582 4846 0
-6709 -349 4989 0
-9395 -200 -7829 0
6193 -8386 -5046 0
-216 3615 -2063 0
-2157 -4044 7182 0
-2804 9964 -7547 0
3161 -8812 -4252 0
6719 -9513 4249 0
5330 6129 1205 0
-9708 -5426 -8916 0
-1924 -7840 -7414 0
6968 -3978 3057 0
-832 -6186 -4183 0
1057 3309 4219 0
823 -9791 256 0
-4798 -8065 5374 0
-4032 4861 -3443 0
-8724 -1323 -5957 0
7712 4168 1983 0
-786 8817 2202 0
1632 -9543 -8020 0
-8320 -2113 -5098 0
-1006 -4576 4419 0
9815 -5428 -5392 0
9570 -4420 -1897 0
8347 -2295 8829 0
2680 -7125 -8986 0
-1157 2580 8917 0
-5315 5188 2898 0
-4483 -6326 3569 0
4318 7304 6432 0
-409 -3554 -455 0
-7687 -3031 5716 0
-525 9342 1627 0
6015 -9571 5028 0
2975 1557 9976 0
6257 -9765 -3624 0
-163 -7644 -5256 0
-4506 -697 4162 0
-4879 -2470 5738 0
-9925 1651 2360 0
-5133 842 -7148 0
1008 -3349 -5411 0
977 -8457 2152 0
7971 6850 -8420 0
-3674 3948 1312 0
3884 -650 -8959 0
2199 -6478 -1423 0
-4625 7832 7777 0
3262 5719 -9620 0
1989 4689 -2964 0
2797 -6928 2745 0
3185 -4656 6007 0
-2369 -581 8197 0
9987 427 8380 0
-1842 3453 1976 0
8418 5181 9619 0
-2990 -1151 -8391 0
-9142 30 -9679 0
2386 1969 190 0
6499 4442 -3640 0
-9172 4642 -3463 0
-4785 -8895 8406 0
3027 -6467 -7157 0
-7288 -5353 -7847 0
-1149 -5473 8032 0
-480 -5286 2242 0
9298 -727 6378 0
2161 5166 6791 0
7196 7562 7810 0
-8756 8898 -2948 0
-3924 -7321 6977 0
-3054 3633 7323 0
-1552 8820 2504 0
-6154 -8049 -3448 0
-5273 -1909 5186 0
1150 -6200 -6012 0
1417 9580 -2367 0
8182 -775 5642 0
-5297 8713 -5037 0
-6798 5738 9820 0
2603 6949 -8842 0
-3372 9905 5196 0
600 -9424 1082 0
-5062 -8904 2028 0
-7513 -366 -4672 0
-5765 -5518 -9080 0
8278 7178 657 0
2170 -2678 -3773 0
-2879 -9672 7231 0
-7427 2036 -9490 0
-2194 -1259 -1016 0
-4314 8504 -1079 0
7132 6263 -8314 0
6994 4366 4176 0
-5291 -2033 8424 0
3346 8606 -6700 0
4299 9175 7314 0
-9113 469 6607 0
-9152 8348 290 0
3947 -5390 6311 0
7207 -3158 -7563 0
2131 2012 -5058 0
-6446 -8541 -6022 0
-4667 4352 -8127 0
-1866 -7715 -6754 0
-9949 -6389 -2318 0
3652 2687 8197 0
4379 7177 -7785 0
-1131 -930 6609 0
-3575 -3292 8299 0
-8030 -6270 6265 0
-3974 3311 6689 0
-3963 -5839 -3521 0
-908 -6064 1054 0
758 -7606 8866 0
8080 -6910 3420 0
-2631 -4151 3897 0
-3082 -2156 -6031 0
6844 6434 -9289 0
-8849 5122 -1854 0
6723 1023 -6571 0
-417 3984 -6035 0
5353 -7793 -2374 0
-5761 6875 6783 0
4104 -4548 -7196 0
6683 6447 8218 0
-9194 -8152 -439 0
-4022 -8926 2639 0
-9142 -5466 4708 0
2326 -1668 9743 0
-276 -9199 1964 0
142 -4274 -4388 0
3548 9836 -6415 0
-8319 9953 -500 0
-323 -8081 2357 0
-1520 -8563 1777 0
3133 237 1646 0
-9885 -415 7618 0
-778 287 -2456 0
3456 1567 2280 0
630 9790 -9942 0
-5813 -1035 -4902 0
-7835 -6959 6673 0
3474 -9488 -5630 0
5249 -8987 2332 0
-6828 -4445 -1613 0
-5817 -5694 -5952 0
-4122 -7370 -5116 0
-9585 3082 -5733 0
-5135 -7088 -7991 0
-7262 -8286 -8998 0
-4214 -5838 8658 0
-6182 2986 7757 0
-151 6830 6628 0
-4075 -5051 -1735 0
190 -2569 4385 0
7677 8093 1180 0
9751 6817 -2786 0
8445 -4506 -5212 0
-7241 -5920 4216 0
-4263 -702 -9157 0
-1273 5082 -9997 0
7692 -2939 8598 0
8019 4883 1773 0
9587 -476 -3263 0
-9895 3808 1807 0
7838 2238 6996 0
3544 6620 -8163 0
-1314 3086 -6955 0
7233 -8663 8594 0
9646 8384 3457 0
-9998 3019 2327 0
945 -3420 -8070 0
1395 -7380 7860 0
-2491 -7481 -2655 0
8589 -7646 -7272 0
-1409 -3797 7340 0
513 6664 1002 0
-3347 9410 470 0
-9324 3539 -1392 0
225 -3846 5674 0
5894 1330 4334 0
-4380 -8687 -3147 0
3019 9733 -8624 0
-8435 -4986 4988 0
-8350 -9163 707 0
5443 -5231 -6846 0
-1994 -59 -5463 0
9002 -7946 1860 0
-9600 3519 -1107 0
-6627 2271 -856 0
-3259 -3493 7944 0
8638 1430 -489 0
7689 -2960 -2537 0
4374 71 -6168 0
-1409 6958 -5579 0
-963 2050 -7627 0
-4429 -5253 -5820 0
8544 -6735 9976 0
6238 8699 -2776 0
-1268 -5123 7401 0
5005 -3851 5411 0
-8647 4319 773 0
1429 -5467 -5698 0
-861 2875 -5813 0
-9356 -6644 5068 0
3357 3854 -3955 0
1814 -6245 7607 0
-9948 3779 -8552 0
-5001 -5340 -2167 0
4095 6478 2191 0
3762 -689 -8945 0
668 4604 -450 0
5976 3012 -6611 0
9612 -1067 6299 0
-3535 8601 3141 0
-1845 -3860 -7847 0
-7619 8614 9264 0
8583 6422 811 0
5326 4985 -4499 0
7511 8853 -227 0
329 -425 -1813 0
-3409 -5596 -1682 0
351 -8974 8429 0
-8381 4006 7526 0
3919 9045 757 0
5486 -9663 -6592 0
-2638 -9761 4689 0
-3194 -8098 349 0
606 -8117 6002 0
-7064 1081 -5711 0
9356 -6978 8138 0
4480 -3870 6640 0
7240 -8786 -9641 0
-5211 4144 -477 0
-9262 2578 -8683 0
1420 1673 2927 0
4775 9165 -2601 0
-2047 2462 4285 0
9964 -4670 8331 0
3027 -3100 92 0
6391 -8190 528 0
5794 -8637 3083 0
6419 7403 6046 0
-6667 -4210 1602 0
5557 -954 4641 0
-4667 -8242 -5121 0
6192 8230 -7554 0
-4112 -769 9842 0
762 9560 -5370 0
6139 2556 -4465 0
9927 2783 5730 0
5225 2951 -5795 0
1303 656 3871 0
4875 -7151 -7333 0
-4090 -5942 7148 0
-2934 968 -1480 0
2884 6064 8008 0
-6378 6785 -1663 0
-9744 -3289 -2374 0
4369 -8250 -1442 0
7265 3176 -2110 0
-7278 -3583 8406 0
-8450 -1476 -5628 0
-1115 -1198 4367 0
-7597 -6308 5828 0
-4680 -8194 1461 0
-8276 9206 8770 0
-1190 -4089 9998 0
-9855 -6244 -1294 0
7675 -5151 1600 0
-917 7260 450 0
-4162 2641 -1156 0
-6551 5858 -4733 0
9003 -418 -2632 0
-2486 4093 189 0
7033 9078 9023 0
6146 -5869 6910 0
-3843 52 1712 0
-2265 -6662 9568 0
-9545 9751 4729 0
3734 6898 6692 0
6888 -1964 -51 0
-1953 6747 5225 0
159 -7552 -1382 0
-301 -2584 4323 0
7658 8790 -1100 0
-261 8605 -6573 0
-6999 9923 8259 0
8968 -7167 -5034 0
4235 379 9932 0
-4191 2367 -1722 0
7463 -4294 -6644 0
-5341 -8908 5292 0
-4086 8044 7912 0
-4878 1293 4722 0
-427 -3346 7987 0
3620 -2827 3786 0
9269 -8296 -6380 0
-8478 5747 -7893 0
5531 5650 5576 0
-9201 4598 234 0
-2914 8223 -7646 0
4809 4848 -8062 0
7597 8933 -4691 0
-4095 789 -8725 0
1239 2343 -4690 0
5099 6196 -637 0
5893 3407 -1463 0
1089 -3628 -6748 0
-3390 -5576 -2734 0
760 -9875 1047 0
-3025 -9333 -2288 0
-4732 8115 5181 0
3936 3720 856 0
3644 -4499 -6151 0
-5981 2260 2070 0
-3660 -3128 -1926 0
-6293 -2366 4116 0
2481 -7318 3704 0
-9044 -3929 -1287 0
-653 -6690 2345 0
7781 1611 2216 0
-7929 -9415 -399 0
419 -7596 -384 0
-2514 -2144 4757 0
9930 9120 4676 0
5889 -6352 -8882 0
-2009 7366 8013 0
7620 6789 8894 0
2689 1632 4681 0
4937 5193 6473 0
-3061 7701 -2728 0
9703 873 8044 0
-7077 9915 -4906 0
-7323 -4775 -248 0
7380 -6241 -3181 0
8370 1183 2352 0
5387 -14 -3570 0
-7328 2333 7994 0
263 -966 7762 0
4047 -6398 429 0
-8187 -526 -5650 0
9847 -8517 -3962 0
7611 -8316 4397 0
-377 5964 -5034 0
5341 -7225 -4532 0
-8923 8453 -2504 0
-9486 -1879 7941 0
4420 -6485 -1380 0
-7809 6105 7984 0
-9267 5138 668 0
777 -6026 -1038 0
2808 -2648 -3140 0
5857 3558 -6334 0
-2531 -2477 1091 0
-5251 9194 5355 0
8135 -4811 8420 0
-7246 4190 -6087 0
673 -416 -8448 0
8262 3994 -2726 0
-1485 -1247 1810 0
4493 -6014 2162 0
5641 -1423 -2848 0
7633 -5597 3223 0
7770 5055 -3434 0
970 -9491 7954 0
-2358 -4986 -2654 0
8907 8424 -4493 0
3884 2989 -9275 0
-9468 -9257 5906 0
-3963 -6467 -9921 0
2288 -1640 -7071 0
-4810 1936 -5509 0
9391 -4226 6308 0
-1703 9178 -5595 0
4453 8039 9014 0
97 1231 -4217 0
1494 8720 9436 0
3277 718 4868 0
-2793 1615 9400 0
4026 -5510 7674 0
2589 -5200 -3744 0
-7715 9523 4278 0
9942 7057 1507 0
-7144 -4145 -2573 0
4358 2391 -7820 0
-7231 6713 -4633 0
7582 5755 -6268 0
3606 4195 1627 0
-6716 6143 -8412 0
5625 -3703 -6773 0
-1557 8425 -4484 0
-1238 -8841 7832 0
6368 -3406 -4407 0
-9291 9231 -2919 0
6087 -5917 5265 0
-5067 -8563 -2004 0
-6959 -6842 7043 0
8487 4616 -834 0
1445 8309 -2030 0
-9466 4524 -816 0
8678 -457 5136 0
2409 -1194 2016 0
-6439 -9099 7484 0
8252 -9648 -2223 0
-8168 -1863 4506 0
-1058 9614 6759 0
-3422 -9426 2360 0
-1557 6349 7527 0
-7291 -6099 8005 0
-2658 -4015 -5494 0
4003 -5362 -1655 0
7732 3019 9714 0
-9112 -1492 8333 0
3023 -4382 -4977 0
-6220 -2973 -982 0
3331 -8709 505 0
-8772 -8892 -4365 0
-7186 6672 7265 0
3857 -3839 6537 0
-7335 983 5908 0
-2306 1557 9316 0
2601 -7603 -6445 0
-9341 5805 2962 0
8249 -9847 -2334 0
-833 -9049 614 0
-4871 -3963 -2934 0
-6604 8797 4331 0
-7928 -7963 -4365 0
4420 8596 -7862 0
2516 6397 -942 0
-8280 -8401 -9627 0
1048 5744 -8299 0
-9755 -4371 -7310 0
568 224 1702 0
-1392 8777 -1843 0
5765 -9712 9637 0
5345 2094 -664 0
-5606 1584 -948 0
-8039 4194 6731 0
-4106 -7393 7525 0
7346 4254 -6828 0
-3599 -9153 -576 0
7564 8264 -6440 0
-2272 4446 8980 0
4291 6013 6360 0
2171 7246 -9909 0
8830 -6433 -8268 0
703 1701 6339 0
-8031 9407 6375 0
1119 -6060 -4756 0
-1891 5183 276 0
6089 6723 5030 0
8681 417 -8326 0
-4126 -5693 -7677 0
3613 -1011 -1002 0
-9853 8766 -4188 0
-3138 -5853 -1269 0
132 3483 7800 0
302 7932 -7348 0
-9100 7220 3253 0
-1635 4069 -6256 0
9953 -5501 2200 0
5316 3270 8815 0
358 3059 -1491 0
-3042 5219 -7158 0
-2821 1476 -2183 0
-3294 1736 -997 0
9436 -2645 -7945 0
8389 -6407 -5638 0
-3838 -4111 -7091 0
-6054 5341 1331 0
-370 5163 6668 0
3358 4815 -5588 0
8268 9109 588 0
-3841 3596 4512 0
1269 -7281 -2924 0
-2877 5356 -731 0
7187 -4493 7162 0
6474 1676 -2581 0
8984 1164 -7420 0
-7723 7217 7928 0
6926 3134 -8764 0
-7416 -7656 1591 0
6572 1417 -3773 0
-8411 -6432 9622 0
7589 -7006 9019 0
6271 -9358 6619 0
-4795 -111 -7721 0
-3899 8135 -8121 0
7360 -6214 -5439 0
-9887 5793 5660 0
-5488 -1949 1984 0
7849 -8477 9721 0
9485 -3508 -1338 0
5352 4343 8413 0
-2247 -4719 -4311 0
-6462 4863 6081 0
-503 -6678 -3485 0
-9476 -7829 -5766 0
-9722 8262 6719 0
-9951 9685 -2339 0
-678 -6715 -8026 0
-1966 1475 -7872 0
-6794 8038 -5399 0
-3115 -6629 -2894 0
2884 -8284 6974 0
9898 -8928 -8663 0
-7021 3254 2375 0
-3707 2863 -6018 0
1563 -5831 7476 0
5432 -7303 -5114 0
5578 6106 6693 0
-2272 9429 7138 0
9130 -557 5783 0
-7552 -6683 2325 0
7057 -1757 570 0
-9383 -1784 -8451 0
-9768 7340 726 0
4952 4846 -9382 0
4235 9552 -6211 0
4860 -3466 7033 0
5106 -5764 886 0
-9462 7243 -8577 0
-9058 4699 7724 0
-9457 -5133 -9326 0
-7869 4769 -3270 0
-6570 -8760 2503 0
-944 5160 3940 0
896 9403 5993 0
-8816 -8509 3703 0
2371 -4345 7141 0
7363 7196 -362 0
4889 99 -4709 0
4638 -4247 -4506 0
-2308 -2269 5054 0
5435 -9663 5265 0
2707 9333 6910 0
-8870 -2588 2011 0
4880 7716 -4900 0
-8961 166 -2531 0
2847 -7464 -9862 0
-2886 6067 -9968 0
-3795 8464 -1170 0
-4156 -2359 9393 0
442 -2036 -5874 0
8041 5 5162 0
1247 -9085 -7944 0
-2529 7848 5764 0
-346 3527 1264 0
1641 9004 -7308 0
3298 2058 -5434 0
-3891 7410 988 0
6080 4999 3946 0
-8198 3949 -700 0
5150 -7356 1571 0
-9879 -5394 7954 0
-6138 7548 -7598 0
9042 -1507 6031 0
-7309 -7291 -8540 0
-9761 -7722 555 0
1435 -1889 -2775 0
7158 7079 4711 0
-9382 7897 7642 0
7577 -8732 6517 0
1726 6704 6231 0
-6196 9492 -7746 0
-8370 8058 4305 0
-3475 4091 -469 0
9586 -5262 4851 0
4437 -4345 -5152 0
7670 8433 6382 0
-392 -9615 -4335 0
-8723 4384 2052 0
-333 -5808 859 0
-9950 -5764 -8317 0
-3795 6015 7462 0
-2689 5448 4496 0
3995 -2288 -1674 0
-7504 -7128 -3327 0
-586 -7456 -9143 0
-3326 -9407 7889 0
9462 -9645 7437 0
-7590 -7157 5379 0
-6921 -2523 4413 0
9507 -9161 9103 0
6986 -6922 1895 0
-3170 -1104 2609 0
8074 -2636 7618 0
3582 9244 -4102 0
7743 5447 -8145 0
5798 -3495 -9021 0
-9222 248 8695 0
202 -9318 -8918 0
-4751 -4548 9864 0
3311 -5257 9486 0
-6183 -4100 2570 0
2146 -4235 6056 0
7640 -9785 -2167 0
-2482 -7867 -9448 0
121 8097 8719 0
-7126 -6743 -2648 0
6044 -1629 -6605 0
-8652 -6404 5473 0
427 -266 -1995 0
-7747 8382 5762 0
-9070 -5493 -3946 0
4942 1517 -1344 0
917 -6112 -6780 0
-1028 1915 -4443 0
6127 -7962 2614 0
-2856 7880 6434 0
6052 2288 -948 0
5288 6624 -1824 0
617 2660 -7977 0
6755 -5577 -4116 0
-5927 1091 6833 0
-8608 -5367 -4061 0
-6909 5765 6101 0
-8150 -9406 -7544 0
275 7209 -9437 0
8347 3586 7830 0
4206 9741 5590 0
185 -4478 -5023 0
1338 -1478 5289 0
-5706 -8590 649 0
956 8054 5248 0
3352 -4526 171 0
-9605 3133 -7359 0
-572 -8060 -2178 0
1266 -2233 4542 0
3211 -8662 8451 0
9035 3737 4005 0
4525 4701 1612 0
-8968 3758 -5625 0
1786 8016 -9071 0
-6723 7849 -44 0
3935 -1005 6099 0
5280 -1621 -3181 0
-9041 5222 3166 0
-5809 899 -5942 0
-5901 7342 -1788 0
-7745 3666 9645 0
6331 -637 5117 0
4025 -9570 -8634 0
3291 5585 -8640 0
-8194 2701 -6131 0
-8613 1429 -582 0
-7961 -5265 -2154 0
-2793 7600 670 0
-5634 -7285 9421 0
-7298 5740 7813 0
-1342 -1683 -2964 0
-317 3466 887 0
9934 -3429 1772 0
3675 -14 -6692 0
9090 2180 4535 0
-350 9424 6540 0
3986 3030 -8443 0
-6964 -6563 5862 0
-4666 -8802 2284 0
3187 -9671 -9653 0
8380 -7675 -5143 0
9642 -8371 1972 0
-2838 -1509 4495 0
-3585 3162 6136 0
-1729 -8438 -1584 0
2238 -8831 -142 0
-7857 -3653 -1855 0
-1450 2699 -3203 0
-5874 -8587 241 0
-6539 -1384 -5044 0
3104 9529 7047 0
5117 -5708 8618 0
6024 1422 -6552 0
9961 165 7602 0
-6824 -58 -7702 0
-6839 -5602 5385 0
-1809 -4533 5890 0
3935 6315 7350 0
9636 7327 -246 0
-5126 -3826 -7151 0
6597 7248 -6604 0
-4368 -930 -9751 0
-863 4886 -5111 0
765 1037 8755 0
-4810 5894 -209 0
1015 -6638 -6696 0
4175 -4931 4449 0
-5405 15 2481 0
2314 6891 -1362 0
-5225 2052 -2355 0
-6597 8244 -7610 0
5621 -7170 -9774 0
-2004 -5053 -8735 0
9999 2421 -5437 0
7229 -9464 -505 0
-8982 -829 -1162 0
30 -2067 -8920 0
-8030 -6894 -7549 0
8023 -1743 7426 0
5853 8346 6027 0
2281 -4920 62 0
-4530 -5379 8518 0
-9689 -4525 9411 0
-9104 -5994 1530 0
-551 2959 5118 0
-2950 1539 7565 0
1016 -7728 7091 0
4657 -1419 4801 0
7314 -8246 2730 0
1747 6481 940 0
3350 632 -2291 0
-5498 5746 7173 0
-4479 -3740 -8770 0
-3217 -4356 -5698 0
-3032 -2775 -4168 0
-2814 -5066 1620 0
-3834 4593 -9566 0
6669 -7216 -3588 0
452 2233 2251 0
-1361 -5342 -6460 0
9407 1147 -2202 0
3563 -3187 5537 0
-2179 4213 -7281 0
3088 -6139 5707 0
-7983 -5763 3789 0
5196 1260 9585 0
5045 -2466 1828 0
-8460 8654 -8277 0
1560 -9630 -6998 0
-9227 -3985 -7420 0
7788 4260 -5418 0
565 -5744 -6758 0
-9589 -1000 9807 0
-4140 8288 2130 0
9316 -413 4854 0
711 -9443 2902 0
-5900 -2887 3389 0
2703 -62 7536 0
6645 -5907 -6536 0
-9714 6927 1980 0
716 -6468 251 0
1076 8043 4889 0
-2977 -5751 -1613 0
8706 -7590 -148 0
-1872 8828 9731 0
4466 4477 7317 0
-351 -8744 3679 0
5674 6598 5483 0
-7821 -2769 5380 0
-8147 -1560 -2942 0
-4574 -1895 -1556 0
7089 -355 -8122 0
6277 -4278 5536 0
8675 -7839 -5861 0
-703 -3336 -3246 0
-3648 9064 6480 0
5129 885 -2148 0
-3844 -1118 -7688 0
8532 8164 9708 0
5400 3951 -1725 0
1506 -7896 6459 0
7640 -779 9243 0
-3196 -9863 2172 0
1433 5191 -4687 0
-8913 5865 5222 0
6795 6388 4494 0
-3488 -848 9983 0
-3706 2993 5020 0
6305 -51 -5697 0
-2303 1990 1078 0
-6622 -1422 -3581 0
9509 -9713 -9081 0
7268 -8588 -5644 0
5517 6442 -9437 0
6784 -3620 -9559 0
5068 3309 4320 0
-7361 1990 -2647 0
-6194 2139 -4746 0
-8459 9316 6860 0
-7692 -6649 9439 0
-8825 -8389 1375 0
-8306 -9362 2935 0
6678 -8270 5870 0
-1966 -8662 -9528 0
-4620 -7337 7618 0
7663 4894 -4444 0
4413 7826 -9062 0
542 9687 -8492 0
-4494 8112 -3252 0
-4624 -1818 19 0
5202 -3004 8656 0
-9716 5311 -1001 0
6912 5679 -4223 0
306 -3456 1485 0
971 234 -2015 0
-8554 -3989 -274 0
-7797 2798 -8825 0
-1075 6865 -6504 0
-5684 -2049 798 0
-156 -2658 -413 0
-8604 -6803 1907 0
1062 -971 8305 0
6223 -8872 -8046 0
-8392 -8851 -764 0
-7908 -3960 -5088 0
841 3992 7556 0
-254 3442 -1725 0
8180 8344 5388 0
-6644 -1614 -7108 0
2620 -5770 5027 0
-5186 -6524 8272 0
8936 -7834 -1687 0
3927 -4916 6105 0
-5773 2073 7629 0
8627 8159 2802 0
8102 6131 -6458 0
4004 -3576 6111 0
4204 -7206 -3017 0
9830 -1612 7630 0
-6904 9310 -456 0
4134 7437 2888 0
-6426 7216 7862 0
-6748 -439 6850 0
-8594 -7752 -504 0
-2388 -681 -6610 0
-827 -6032 -6424 0
6750 3038 1115 0
5328 8870 -1760 0
8637 4150 3041 0
-2596 5775 -812 0
-8637 5483 -8764 0
9227 -9965 9463 0
-9065 4607 -8866 0
3458 1374 1762 0
-1166 7622 -329 0
3205 3983 -2644 0
-1124 -5707 -2835 0
4658 -9696 -3112 0
-7615 6305 3440 0
9064 4033 7001 0
-7662 1273 6828 0
5936 5806 1494 0
1395 -4037 5529 0
1897 5068 5353 0
-2585 7493 4688 0
-2674 2287 -5050 0
5490 3106 -5161 0
2994 2204 1289 0
5261 -5966 -1887 0
-4639 5904 -623 0
2494 831 4042 0
854 -4242 579 0
-2206 8038 9540 0
6782 -5597 7883 0
6848 9223 -1154 0
-6447 6089 -3078 0
6554 2711 -8615 0
385 -2655 -2809 0
-362 -760 -7949 0
4707 9534 9512 0
-4965 5374 5073 0
9457 -66 4676 0
7586 -1444 3910 0
-1007 -1730 9687 0
-994 -5174 -1522 0
-5392 -8465 -8558 0
-5006 5865 -9391 0
-9462 -6101 7777 0
-4643 -3550 5950 0
1029 7204 8559 0
-8100 2104 1601 0
793 -5987 -6813 0
-5943 -4601 -3779 0
4210 -160 -9392 0
3337 1366 -2742 0
-709 5593 812 0
-7556 -3016 -8926 0
-4063 6017 -6547 0
391 -6613 1863 0
7612 -7532 3439 0
-3228 1826 -7624 0
-8962 422 -5338 0
-7931 8599 -37 0
7674 8449 6564 0
344 -5901 4337 0
-2072 -2039 2191 0
-6607 -7510 6988 0
2008 -1706 7041 0
-3312 -7456 1099 0
-4123 -9077 -8860 0
-9969 -9758 -8192 0
694 308 3507 0
2318 -9965 -965 0
-4141 6346 -4832 0
311 5375 -2229 0
-4650 3280 7806 0
9031 -239 4291 0
72 2792 352 0
7399 9841 7844 0
9750 -4991 -3965 0
-7094 -5598 5054 0
-2862 -5051 1606 0
-8721 -2924 9870 0
4359 -5758 -6981 0
-1975 9749 9899 0
-1535 -975 -1836 0
-1133 3313 -6735 0
-8538 -8494 4222 0
8101 9051 9935 0
9675 -722 -7874 0
-2402 -8913 5361 0
-4475 6833 -8615 0
9377 -5668 -6835 0
-3863 -7496 -582 0
-1320 -9995 8565 0
-8227 -1720 -7102 0
8705 335 -3302 0
-723 -334 -4107 0
-8127 -7957 -6415 0
8427 2500 -2447 0
-3010 1537 -8215 0
-2615 -5609 8635 0
6461 5656 6524 0
4572 496 -9126 0
7747 -5528 -6824 0
8829 -7987 -2806 0
154 -9276 -9865 0
6627 -8619 2291 0
9562 2572 -3197 0
6438 7500 -1153 0
-8290 -3696 6243 0
6712 -9166 -4458 0
-6507 -7296 7436 0
-1156 3048 -5445 0
-772 2035 -2636 0
-1783 3335 -2701 0
-8069 1718 -4871 0
262 -3749 -7843 0
6474 1026 -8501 0
6803 -5373 7717 0
8855 2458 -5642 0
-4722 3959 -1312 0
-5463 -6197 2309 0
5349 -3844 -7234 0
3457 -4925 -3888 0
6489 -2733 8393 0
3283 -6440 -8142 0
-7107 -7330 -112 0
6858 -9359 -4356 0
5322 -7196 -842 0
-2274 -9320 7585 0
-5406 1837 -7345 0
9404 -3293 -4982 0
-7636 5464 -8522 0
4722 -8032 -5155 0
9541 -9251 -3298 0
3411 -9175 -186 0
9337 -703 7677 0
6360 -4061 -5858 0
-7690 -1860 -7646 0
-6277 -1443 3289 0
7753 -2108 -3664 0
4618 4126 7299 0
-9366 6154 3918 0
-499 -537 -3584 0
-3170 3397 -9203 0
3394 5629 1675 0
3859 4151 9733 0
6620 1064 2092 0
-6500 -4227 1861 0
6242 -233 9383 0
-6061 -7486 3712 0
7944 4143 -7489 0
7641 -8111 -5551 0
-8899 -2477 7555 0
-6702 3249 -1858 0
-5122 -8064 9616 0
9043 -7369 2675 0
-9426 -2566 -773 0
5549 -5781 -3221 0
7231 -2450 4904 0
-6302 7015 3570 0
-3541 -2262 29 0
8657 -4816 -4650 0
3309 -9627 5844 0
-5649 -1410 3892 0
-7853 5083 -2460 0
1990 188 -4101 0
-1675 -3982 2119 0
-6782 7595 -5552 0
-7074 8104 -1835 0
381 -2681 1102 0
-5113 6388 331 0
-4174 3043 6291 0
8816 3538 -8162 0
851 7482 -9113 0
6083 -8378 -4356 0
2023 -7326 -1705 0
3033 -515 -3195 0
-4986 9890 -270 0
-4357 4291 -1886 0
3257 2182 -3060 0
4369 -3224 -3391 0
573 9541 -9669 0
-6637 -5675 6861 0
1156 -7529 -508 0
3893 -1894 -1800 0
7685 -310 -6845 0
-3867 5813 -8282 0
4814 -8486 -1627 0
-9053 4479 3196 0
8904 83 6464 0
5732 9531 3371 0
-9100 -1925 8869 0
-2878 6792 -8632 0
-2952 -6496 6014 0
2569 8592 -3109 0
1106 -7966 6654 0
-7623 -545 -5880 0
-4767 -7221 -4096 0
-6551 6463 -9098 0
-2189 2923 6169 0
6214 -5259 -5389 0
-5116 -1193 843 0
2643 2162 -715 0
8733 5158 -1388 0
3005 7409 -6545 0
6112 905 -7736 0
-630 2788 8296 0
7228 6311 8377 0
7017 6072 6603 0
-3699 4203 7627 0
-7549 7050 -8768 0
9485 5266 -8923 0
3704 -34 6854 0
-7839 3837 -5644 0
-7592 9352 8581 0
3955 -2628 4499 0
9586 7995 -7557 0
-7977 -9518 -6271 0
4887 -9618 -5338 0
-7659 -5935 8288 0
9683 -7783 2151 0
-2287 -6370 1025 0
5151 2180 -8091 0
1050 8000 -3719 0
9889 7176 -2351 0
8532 -1673 5813 0
2723 -7781 7662 0
4018 6552 9879 0
1081 -5936 925 0
4812 -7009 -5004 0
9739 5097 -300 0
-563 -743 -7108 0
909 -5717 -4950 0
-4835 -8892 -6642 0
-5150 -7238 -7134 0
-1968 -8979 9039 0
-9993 -2330 -7511 0
4442 3732 -5292 0
2371 2979 -7104 0
-7426 -8659 -919 0
-9924 5799 -9931 0
-7935 4062 -3483 0
8142 7139 -2267 0
-1161 -9277 1369 0
1423 -4522 -8097 0
-8089 -1478 -9058 0
9520 7970 -9140 0
5621 9510 -5199 0
4309 135 -3605 0
-4748 -1999 1628 0
8181 -6860 -9087 0
8114 -9175 -8798 0
-9164 5170 -7255 0
9158 -4917 -602 0
-4977 9472 7493 0
-6597 2311 -7369 0
6326 -7046 7568 0
-7742 7357 1559 0
-6338 2519 194 0
340 6180 4705 0
-1613 7327 1473 0
-9501 6038 9333 0
-4902 -1666 9187 0
1459 4437 -4378 0
-6139 4414 -3702 0
4069 9255 -9554 0
-6424 7268 -4567 0
3139 3535 -3775 0
9987 1425 2087 0
-328 2353 -576 0
4558 6450 9629 0
-9172 1969 -4446 0
2154 -8419 6736 0
4441 3168 6146 0
-5573 -3027 -3777 0
5049 -7199 8567 0
2361 2332 -859 0
6698 -6184 461 0
6154 1117 -5347 0
-844 9667 -1594 0
-2138 8103 -9128 0
-5358 9225 3686 0
7378 6862 9618 0
-457 -2426 -8081 0
9425 -4931 4053 0
-4765 -3432 4 0
104 8218 5877 0
-6880 7168 -4375 0
2534 8730 -5704 0
4772 -197 9264 0
7429 1599 5068 0
4348 4646 3600 0
-3495 4460 3264 0
-6120 1802 -1818 0
9653 -4678 -5253 0
5573 9265 -8670 0
566 2450 5927 0
557 -9392 -7041 0
7587 -2670 -6593 0
6908 -2373 -2538 0
5135 4008 8074 0
-5538 -5273 4398 0
-2096 2383 3877 0
8390 4707 -3088 0
3630 9186 -7116 0
-9830 2799 6116 0
-6643 -1936 -3707 0
6381 -2800 4547 0
-7509 -9628 -8339 0
-9098 7147 2396 0
-5034 5651 -9555 0
4916 -2300 -4255 0
-5212 8467 8281 0
1063 931 1034 0
-7687 1172 3300 0
5238 -8085 7711 0
1977 9416 -3913 0
-9919 343 -4898 0
1320 -831 5470 0
-1154 -6603 7251 0
-576 3918 2051 0
-8460 6418 3248 0
8386 4608 -3231 0
337 -94 3440 0
-1494 969 3411 0
-8554 -9237 9002 0
-623 6682 6056 0
-6841 4599 -3517 0
-1640 -6020 -2881 0
3443 -104 3117 0
950 5043 8498 0
1065 -5948 4034 0
6900 -4035 2725 0
-5062 -766 -3075 0
9388 -1500 4430 0
-8831 -5008 3706 0
8238 -9857 8443 0
6426 -8671 5840 0
-1156 -4967 252 0
-409 -5503 -6959 0
7701 -4221 -8 0
3121 -9161 8634 0
-9090 5257 9054 0
-9971 4175 2993 0
4823 2280 -3148 0
-5041 -9370 1590 0
-9199 3195 7803 0
6131 7302 3585 0
-9271 6568 -5616 0
-5856 -564 2928 0
4227 7288 -6972 0
-2976 -1813 2975 0
-9672 -2411 384 0
7866 3712 -4226 0
1070 6966 5216 0
-5116 8269 -7560 0
-993 -1471 608 0
-2615 -7848 -609 0
8299 5674 -5416 0
-921 7674 8334 0
-9463 3876 -3177 0
-2522 -9435 7291 0
883 -639 6299 0
-4351 7967 -5874 0
-3901 -5871 1051 0
5512 7349 -2144 0
-3751 -8312 -171 0
508 7555 5921 0
2428 3693 1905 0
2536 -6285 -3767 0
5364 7978 -4024 0
-968 5477 -9663 0
3529 7532 -8096 0
-6938 -5772 -6615 0
-7470 -1500 -1232 0
-3756 -3691 -78 0
7785 7553 -1129 0
4863 -8787 2947 0
-8190 3249 1470 0
-7135 7745 7774 0
-8707 -2810 -4785 0
-3366 -6127 348 0
-7233 -1547 7442 0
-2978 911 5088 0
-8492 -5443 7969 0
-236 -16 5439 0
-7708 -4712 -4400 0
7310 -4930 2697 0
9841 -1789 -4831 0
-4032 6040 697 0
7865 -8539 6188 0
-1643 -6918 -8013 0
-6258 -2973 3186 0
-7515 1267 -8801 0
-727 -6544 -6205 0
-136 1749 -5765 0
-8627 -5437 -4986 0
3514 9783 -8745 0
-9689 -520 8394 0
3743 1815 9358 0
-5195 1799 7529 0
-5351 3461 -6491 0
-5509 1955 -2267 0
-1526 2451 6345 0
-9289 2054 7163 0
-8219 4819 6873 0
-9304 -6095 6273 0
9303 3463 -4844 0
-2522 -4809 -3921 0
-3309 4476 -1277 0
-9455 -4792 5938 0
5956 -2820 -946 0
9486 9932 -3866 0
-9262 -4303 -4341 0
-1275 6661 -7682 0
2171 5893 5678 0
9598 -9618 -6095 0
8457 -6571 9103 0
-9835 3666 -8146 0
-9526 -6612 -2227 0
-5339 -711 6347 0
48 7811 -3004 0
3681 3378 6076 0
-7210 2066 3983 0
280 2473 7164 0
-3495 -8521 -9617 0
-7345 9190 2308 0
61 -5624 -5801 0
9027 -7940 5916 0
7951 -6996 -6950 0
-100 8284 6450 0
8426 5572 -7972 0
-8216 -8971 1839 0
-6135 9 1128 0
9265 -6824 275 0
5029 -4643 5704 0
1150 4860 -6597 0
-6576 -8462 1956 0
-2687 -4868 930 0
2920 8538 2749 0
-7304 3948 -3783 0
2284 6931 -2805 0
4381 8835 8433 0
-6205 -8641 -9156 0
2801 4033 8957 0
4225 -8248 9391 0
1132 1161 -2075 0
5679 3025 -8462 0
5002 2177 3836 0
-8871 -3409 3261 0
-9737 -4622 9495 0
-9462 2995 4641 0
7721 -5456 843 0
576 -4452 -7971 0
-1757 8599 -6936 0
-3669 -7679 -6938 0
7529 4507 9516 0
-6278 4871 -3646 0
1215 2033 8497 0
4124 7979 -5277 0
-5822 5337 8779 0
9933 -5183 -9368 0
-7735 9110 185 0
2796 -4405 -3388 0
7206 9912 8142 0
-7650 -4858 9838 0
805 3025 1014 0
-2002 9872 -1401 0
-6959 1334 6173 0
-8022 6728 7123 0
-4183 147 -5887 0
9939 4513 -7648 0
-3930 4087 1664 0
-3693 7652 4619 0
7924 3392 2571 0
-7430 2458 -5097 0
-234 -3349 3805 0
-1121 9253 8689 0
-9705 -9230 -913 0
8726 -8907 5274 0
3558 2617 7781 0
5316 -6833 662 0
-8477 4064 -4206 0
-2745 -2733 3733 0
-6333 -2800 945 0
9638 9830 -9255 0
-1981 -9081 3602 0
963 -2157 8679 0
-5410 7678 -3509 0
8037 7558 9423 0
-6798 8871 6253 0
5741 2135 -1541 0
9452 8213 -5135 0
-5364 8038 9725 0
9993 -7125 4489 0
-9624 -1906 -1233 0
8871 8201 8577 0
-4876 -2837 4151 0
-3623 5482 1198 0
2495 7866 -9470 0
6922 9545 -1235 0
1528 -3997 -5165 0
3259 5578 -5618 0
9406 -9794 -8951 0
5869 -8202 1586 0
-1377 -8799 2598 0
-47 -2906 2449 0
2073 3812 -8968 0
6125 -7321 4345 0
6956 8803 -3983 0
5890 -7378 -2335 0
4904 7499 -151 0
1218 -2122 8774 0
-2879 -8626 2205 0
-9423 3986 7013 0
1345 -4974 -4580 0
6176 -8608 -9305 0
5160 914 -8833 0
4666 -4848 5565 0
-2464 2212 6998 0
-5419 4605 9826 0
-7811 6106 -6426 0
6500 6685 -1617 0
-9262 8847 7339 0
4335 -7342 -5417 0
-5296 -4660 7433 0
-4332 3589 -3584 0
4955 -7651 -3132 0
-762 -8269 4394 0
-3832 -6579 -7070 0
-3550 -247 8646 0
4109 544 6460 0
639 -7026 4898 0
2663 -5122 -8381 0
1520 -5219 -4020 0
2613 6995 -2550 0
-8052 7301 -8383 0
-37 5454 -5831 0
-874 1957 1141 0
-7267 1576 4585 0
-9831 -8665 -9730 0
-8847 -2969 -2547 0
-8899 3446 1028 0
-7980 -7696 2801 0
-9455 -1119 -2620 0
-8069 8514 6109 0
9949 -7658 -2567 0
2922 4836 3067 0
3514 -6287 5085 0
-2713 -4270 764 0
-2301 -6434 7199 0
4955 -5352 -5038 0
-922 -6537 3030 0
9364 -4846 -3430 0
3839 5970 5185 0
9771 -462 -5501 0
-6270 -7789 -8523 0
-2805 -4267 -8066 0
-3460 -7402 -5061 0
327 2273 -7005 0
-3354 8713 2138 0
-6006 -8638 -3273 0
5658 -761 7530 0
-5742 4370 4135 0
5423 7619 -6273 0
6497 -3690 3139 0
1898 8106 7323 0
5058 -5469 -4208 0
-451 -3248 -8057 0
-4952 3975 6401 0
7410 -9804 -476 0
3755 -5526 9811 0
-349 4878 4366 0
4185 9585 3435 0
-7330 -8206 -3201 0
-874 1441 -2325 0
-8799 -2081 -7244 0
4920 9246 9473 0
4313 8931 -9544 0
-9583 -9916 1308 0
-6293 -6948 -8114 0
-4762 -6899 7324 0
2350 -6713 5280 0
-773 8122 1269 0
-7345 4203 5715 0
2514 4233 8258 0
1575 2203 4719 0
582 -2473 4369 0
-4244 2168 -4652 0
1498 1401 8042 0
1203 -8308 5028 0
-244 1062 -4036 0
-8855 1057 -8956 0
-5728 -7127 9517 0
4815 2899 7608 0
7274 -6847 -5557 0
9147 -8789 -1256 0
-1496 3140 -1079 0
4266 4267 3251 0
392 -2332 -2922 0
3607 -3947 -3186 0
7292 5032 7634 0
-1251 -7039 3558 0
-9996 -5912 -900 0
-1073 2739 -576 0
9129 6679 2484 0
9576 2142 -1402 0
-6906 -2856 3698 0
9693 2510 4910 0
-5168 -8544 -450 0
8079 -1384 -7809 0
-4743 -8851 7848 0
2353 -9527 5814 0
-8587 -5010 4464 0
-5465 -298 4706 0
2547 210 -2043 0
-8683 -6614 125 0
-7091 5376 -1650 0
-4461 1678 2628 0
-6719 -6802 -3546 0
-2467 3680 6377 0
-1391 6157 -8577 0
5107 -6268 7335 0
-8978 5578 4807 0
-7942 5370 -8081 0
6064 -8113 5833 0
3905 -4438 -1261 0
2609 -9038 2179 0
-5140 1398 -3172 0
339 -9363 3787 0
-3956 -3725 2467 0
2182 7518 -9908 0
-1639 8578 -9874 0
-8175 1286 -5403 0
6842 -8947 -5004 0
7580 -9289 2557 0
8260 -4762 -1174 0
6732 4746 -898 0
3160 -7265 -4543 0
1564 -1459 8791 0
7228 3594 -4123 0
4403 5935 -1984 0
-2819 -3397 5015 0
-1539 -4032 920 0
2965 9052 -4257 0
5580 -8241 -1630 0
1256 -4362 -2224 0
-6293 -6336 8683 0
-4827 -4793 6921 0
-1442 2355 4890 0
-2324 7013 4819 0
7844 1308 -7774 0
-8589 -3753 -4306 0
1541 3954 5510 0
8874 -7630 -343 0
8235 9569 -56 0
1132 1080 -2739 0
-8483 7135 -1535 0
1261 1499 3637 0
-257 7473 6461 0
-8862 3781 -4110 0
-6714 -9257 -1175 0
1525 1859 -8362 0
3972 -6829 -5782 0
5228 8711 4531 0
-3896 -4909 7965 0
5635 8615 -3982 0
7790 1576 2676 0
-1343 9123 6025 0
9072 7148 5704 0
2874 9384 219 0
8294 7137 733 0
1179 -4429 2941 0
-495 -5413 5138 0
3915 1201 7142 0
5874 6405 -8270 0
-8708 -6171 6789 0
5367 -3444 381 0
8620 -6352 -1373 0
-346 -6242 8730 0
6965 -5513 379 0
4165 -13 -6961 0
-4165 -6724 -1417 0
6670 -1863 -8536 0
5607 1674 -1741 0
-8339 1216 8208 0
105 4007 9871 0
-9701 -8501 -9113 0
-981 7192 2182 0
-6211 6363 -8778 0
-8844 -4948 5221 0
5934 -112 1962 0
3754 3455 -1376 0
-9624 1110 -818 0
8080 -3302 2165 0
9390 7417 -8952 0
-6420 9660 -6573 0
-6187 -858 3881 0
4078 -8749 9751 0
-2237 4943 -8338 0
-582 5550 3007 0
-1684 8378 6860 0
-4706 -2002 -1343 0
-4610 180 2412 0
-2037 5330 4176 0
236 -4404 -464 0
4101 -9065 6916 0
7957 -1115 -4378 0
-6822 -5463 1072 0
7337 -9633 4884 0
-3420 -2894 -9436 0
-1550 4761 6658 0
6997 -3916 -1223 0
9830 -788 -7323 0
-7770 -7233 -4574 0
-5393 -8495 -380 0
7020 -1909 -5327 0
-9725 -744 -6683 0
-1184 5315 3926 0
-1219 -3779 4241 0
6038 -7586 -1995 0
244 7153 3827 0
3949 -8852 1420 0
3861 512 3706 0
-7355 -378 2178 0
-4675 -1041 -4038 0
9560 6267 3845 0
725 7104 -8405 0
328 1259 -1734 0
-1151 631 -2224 0
2839 -5981 1001 0
7534 -8418 115 0
-3082 -2481 -7885 0
-3286 -9199 -8086 0
5437 1104 -49 0
2502 6334 5230 0
-4987 -1965 -9336 0
5503 -5193 3670 0
3107 5097 7586 0
-7008 5006 4939 0
3241 6502 -8072 0
8081 -2869 -1283 0
8881 -6042 7676 0
-1800 6731 -5634 0
7958 -9241 -8426 0
455 1870 106 0
-4598 2679 8768 0
-222 -1007 -3120 0
-7236 5960 1741 0
7021 8617 -9110 0
2697 6885 -2330 0
-7695 4890 -6883 0
-4092 -1538 3112 0
-6407 2447 4622 0
-2433 17 -3544 0
-2240 -3518 -2707 0
-2147 2738 -1779 0
-8232 1055 1835 0
9323 -3833 -2768 0
7487 509 -6822 0
-4563 3083 -6370 0
121 5558 8108 0
-2027 2532 2351 0
-6733 -2841 -6730 0
3985 -2755 451 0
9615 -1385 -4222 0
-1160 -2793 -3457 0
7890 -2412 8285 0
-9006 -5298 9225 0
5053 -3487 3824 0
96 -6528 8555 0
4542 3008 -2623 0
-5786 -8378 8308 0
9014 -3562 6487 0
5199 7628 -1490 0
-9269 -977 7122 0
-1656 -2559 8049 0
-7075 9790 9678 0
-3252 -402 -3586 0
7297 5779 -6424 0
-7064 4126 135 0
-2416 8913 -7755 0
-3497 3660 5061 0
-5161 9916 -104 0
-1443 5388 -5633 0
-6724 4661 4407 0
-6678 -4482 2701 0
2892 37 3839 0
-2020 7717 -1347 0
9876 6186 -4366 0
5693 7479 -9130 0
1884 4607 9349 0
-1156 4434 -184 0
4424 7777 -9947 0
-3556 1846 3090 0
8608 -6963 -3201 0
6955 5084 -9411 0
-1312 -1778 3355 0
9640 8188 8016 0
3183 -8105 2789 0
1629 -5301 -3888 0
3689 -9231 9903 0
-7311 -8198 -2698 0
8782 6437 8619 0
3239 425 -9126 0
2858 691 3089 0
-5635 9913 3790 0
1936 -7266 3713 0
7793 380 5419 0
9663 4244 8614 0
5273 -7950 667 0
8372 4459 7610 0
-7496 6817 -5122 0
3925 4653 -4987 0
-7414 194 -5896 0
-7181 -3584 5856 0
1887 585 3838 0
6735 6875 -307 0
5539 -186 -7224 0
-3051 6628 -1889 0
1629 7382 -4669 0
-4246 8373 6492 0
-1404 -441 -3988 0
-357 6006 -3711 0
-2834 3140 486 0
-9901 -8375 -8703 0
2150 8990 4135 0
4193 -9329 -5159 0
5482 3786 7270 0
-9336 8430 -9914 0
8928 9109 -5442 0
-5002 -3292 -745 0
-8519 -8458 2093 0
6443 -7226 8042 0
2840 3448 -4263 0
-9938 4129 -9728 0
161 -4965 -7526 0
-8665 -7796 -3018 0
652 -3069 5538 0
-7297 8590 -6396 0
-1099 6055 4477 0
2283 -4623 -5797 0
-3343 -3820 -7315 0
8190 -2097 9564 0
-8530 -99 3929 0
5091 -2574 3871 0
-8476 4760 -7475 0
-3916 6107 -8093 0
-6307 5774 8075 0
-6920 -5187 -5097 0
3550 4990 -1819 0
-8183 2053 -9546 0
9294 2086 6738 0
-8507 -6232 4390 0
2963 -4628 4337 0
8813 2209 5751 0
-6108 -7523 -7541 0
-8320 -8478 448 0
3717 6370 -8178 0
3603 1998 -5164 0
-8223 7338 1221 0
-7959 -3771 4912 0
-5968 6311 -188 0
-758 -5639 1272 0
8914 8711 2594 0
6724 6631 6820 0
4156 8478 -4500 0
9346 -2392 25 0
-481 7586 -3394 0
4009 1291 -9752 0
-6332 -2759 8654 0
8474 2604 -9597 0
-4073 -7880 -5015 0
-4629 -2604 1074 0
4367 5207 -3229 0
3523 -1966 -6314 0
-3668 2063 -576 0
-666 -2305 4344 0
4785 -9970 1199 0
9883 7109 5432 0
1681 -2951 1158 0
-6102 -4489 -1384 0
-2099 6516 144 0
-9297 -8499 5106 0
4710 4144 8185 0
8420 7692 8012 0
7318 -8692 -5087 0
-7248 5333 -7335 0
2092 -6884 5648 0
3531 214 -313 0
-4607 3702 2161 0
-9410 8148 6949 0
-8649 4187 -4003 0
7970 6061 -9669 0
-9303 9509 -8375 0
-8415 4723 9539 0
-584 -3446 1941 0
-64 6013 -7739 0
-7217 3720 1141 0
1618 -6515 -8346 0
-7038 -8142 7480 0
6847 -5296 -5110 0
-3045 4053 -5391 0
-5915 -1681 6613 0
4098 -1280 7303 0
-3304 5566 5136 0
-1126 4757 9435 0
4173 -4917 -53 0
4500 9941 285 0
7125 5183 2637 0
6974 3870 3464 0
3702 742 -7148 0
-6100 3079 2342 0
-9857 -2578 -5621 0
278 3058 229 0
5492 8820 7186 0
1360 -8670 -1134 0
-7025 4262 -8379 0
-4524 4938 -5227 0
394 -4820 8352 0
8978 7597 2597 0
-1334 4729 -5996 0
-676 -7483 -4061 0
1185 -7427 -719 0
8515 -9182 -7982 0
-2165 -3447 -3390 0
-3016 4978 5790 0
-3387 -1711 1606 0
4782 678 -2956 0
5808 8168 9706 0
-197 8821 -2619 0
-7686 821 -3594 0
-7537 -6999 -6131 0
5857 5495 -9256 0
-8734 6475 3078 0
-540 7812 -8767 0
-5730 -2708 -2714 0
-9402 -5094 -7404 0
2913 -6928 5293 0
2386 -3289 8955 0
5672 2571 -2394 0
3015 6897 700 0
-5077 4889 -1394 0
-9563 -5058 -1285 0
5249 -4399 5395 0
9763 7933 -4675 0
-3200 -2777 -3817 0
-7824 -920 5066 0
-2584 239 5462 0
9212 7487 7013 0
995 -4206 2952 0
4221 6198 3660 0
-8641 -9064 -5130 0
8546 -1444 9997 0
2733 4045 -3471 0
4492 -9945 -9925 0
-9315 8453 -818 0
-1841 2008 2996 0
4007 -7105 8897 0
-7474 8885 -4151 0
7862 -1342 -4104 0
4258 5267 5907 0
-4281 493 6582 0
-9158 -7320 -525 0
-4329 8803 -4960 0
-3128 -962 -1825 0
438 -543 4225 0
1726 -7791 1932 0
3302 -7740 -4418 0
7044 5068 -9444 0
206 -8036 -6473 0
-2091 7301 -6130 0
-8279 6534 -2693 0
4925 -7658 2437 0
-9180 -524 -5340 0
-2355 -4904 -515 0
-7991 -8681 -2852 0
-429 8132 5993 0
8668 2697 -5225 0
8277 -1236 -4688 0
3241 -4 -6013 0
-6560 -8298 -7235 0
-1359 1050 7298 0
8720 -7007 6791 0
2414 751 -8405 0
5207 -2348 6321 0
-1503 6120 1237 0
4199 -8609 -5618 0
-5820 -7382 -2811 0
-2993 7887 -5004 0
-4966 8347 5800 0
1341 7271 5019 0
-95 -8507 5736 0
-5903 -9614 9571 0
-5635 4352 3999 0
6849 6520 -1829 0
88 -7487 7798 0
-8541 4659 -6550 0
5596 1326 845 0
-7440 1109 6400 0
9466 1910 -3171 0
-9129 -1938 4028 0
-719 -335 8018 0
-4067 7069 -8184 0
-864 -8716 -7371 0
-9245 -4169 3973 0
2232 4343 -2788 0
7288 -1707 -8228 0
4325 -3535 2714 0
-146 -9085 4432 0
-2081 -1111 -1767 0
-1692 -830 9224 0
8692 -4862 -3965 0
-2558 -9101 -7635 0
-3091 -8788 -6311 0
-6080 3439 7918 0
3109 2016 2261 0
-6167 1403 5234 0
-2182 -5339 -3162 0
6467 -4284 -1257 0
-2322 7736 -8425 0
2512 -3467 -5802 0
-4068 -5000 4363 0
2292 9203 2673 0
1716 -4496 7171 0
-9684 8680 9029 0
-6039 -4221 453 0
8025 -5375 -4794 0
2615 -6359 4625 0
-5750 2486 -2098 0
-3616 1811 -5999 0
-5370 1410 536 0
-5512 1527 -7133 0
1512 -9080 -5030 0
-4629 -6836 768 0
-6176 2755 9399 0
-5875 7165 -1666 0
9429 4625 -2989 0
6674 -3434 7521 0
-4080 -6545 -1148 0
-6728 1352 -870 0
744 -4631 -4994 0
-1350 -2644 -719 0
-3535 612 1585 0
-3919 9283 -8759 0
5310 -5363 9003 0
9560 -8406 7527 0
-4934 -9831 4484 0
4693 4669 -4121 0
-5484 6792 3970 0
5559 7374 8363 0
-2901 -3265 6557 0
8786 1208 5800 0
-7068 -3084 -708 0
-8034 504 -330 0
9176 -1003 9773 0
-9362 6636 9238 0
-3547 -6867 3298 0
-2315 4225 8611 0
8272 4714 -3511 0
-6615 3947 -3228 0
-2301 -8203 -841 0
-3685 2379 2005 0
-1960 -6711 -9403 0
-9931 4247 2139 0
-5732 9125 -271 0
-6179 -8210 -3276 0
-512 2319 -1240 0
-7789 -2294 1513 0
2316 -5933 9315 0
8655 2012 -1157 0
-1390 7750 3389 0
4988 -5890 1742 0
6071 -562 -2588 0
-4573 3341 974 0
-7466 -9342 4434 0
643 423 2133 0
-2743 -1964 2922 0
2137 -4816 -9382 0
-6354 1729 478 0
8185 -2769 -401 0
503 -9355 8397 0
2095 4137 -7305 0
6861 7412 5805 0
3093 -3019 5989 0
-5098 3381 -2023 0
-2375 8486 817 0
-8339 5183 -1574 0
-9464 -4263 -4296 0
7497 7820 626 0
4249 -6397 -6960 0
1313 7414 -3552 0
5811 4468 -440 0
-1936 4947 679 0
7671 6380 -8708 0
-5817 8929 -8026 0
-9413 -4160 -7524 0
-6638 7854 -4510 0
2868 -7941 -4281 0
3042 -5490 -7314 0
-8229 -1613 2652 0
-2886 -1125 -6722 0
5741 3978 9721 0
13 9278 2636 0
-8275 -4396 3999 0
4980 -6850 -3886 0
1971 -4708 9892 0
510 6510 -2233 0
-6187 -4476 -5283 0
8389 -4079 4704 0
6044 6915 -2604 0
-8194 -8921 2117 0
7364 -479 -3621 0
-3013 6359 7003 0
-7147 2418 -1830 0
556 -7779 2146 0
4919 -5177 -7961 0
-5942 7765 -7444 0
-904 1865 -7576 0
-4825 8655 5779 0
-6259 3332 299 0
1654 6380 1932 0
2166 1564 -7704 0
-6780 -3520 6187 0
1952 -2941 9496 0
7269 985 -8583 0
986 -4517 5687 0
604 3094 141 0
-8002 -2781 -9592 0
-882 8951 7892 0
-42 -6429 -3187 0
-7576 -1418 -1785 0
700 -9812 1204 0
-7115 -1031 -1278 0
3520 1976 8287 0
3670 7713 3621 0
-7450 3068 -7349 0
9431 4830 -8064 0
8091 9524 5304 0
9495 -8633 -4307 0
5598 4794 -7568 0
-3870 -4869 -343 0
-5307 6483 5309 0
-8047 -5520 -7621 0
2184 9341 2276 0
4364 3649 8031 0
-8869 3788 -7245 0
-3941 -8711 9679 0
5906 7939 8070 0
9620 5485 -1991 0
-8611 6310 -9304 0
-7728 -1069 3995 0
5833 8569 -7860 0
-4661 -2443 -405 0
-6678 5572 -4501 0
-8322 5698 9126 0
4980 4331 9301 0
-8720 -2914 824 0
-5083 -2401 5219 0
1099 -1532 -5555 0
-369 -4788 -3879 0
-9238 -6140 -503 0
-3218 -6574 2008 0
-7967 212 -5798 0
-5549 5007 5868 0
-6034 -5922 9357 0
-6292 1053 1500 0
8758 555 9373 0
5604 4589 2787 0
3982 -6122 7735 0
502 -7741 4963 0
1489 519 -462 0
1439 3011 -4875 0
-5506 5394 2626 0
9839 9485 -1440 0
8186 -1979 8925 0
-1112 5915 9102 0
3572 4192 2288 0
-5065 6482 3632 0
1989 7862 2518 0
-9984 -5459 1696 0
-8431 -688 827 0
-5292 -1947 5868 0
-9826 -651 8875 0
7882 115 -427 0
-5137 -2573 -9944 0
265 -9361 9010 0
1027 -5297 -2392 0
1688 1986 6842 0
-9897 -1711 -6998 0
-1385 -9466 -3665 0
3309 -8116 3330 0
8250 6718 6376 0
5880 -7376 -6834 0
1934 -1777 3826 0
-442 1129 -8795 0
2484 -7454 -6746 0
-5824 -4859 5462 0
6981 -7867 6782 0
2761 4987 917 0
-8341 -7873 -7489 0
5303 7001 -2267 0
-7561 3231 9120 0
76 2705 -3711 0
8119 -3790 -6227 0
2312 4794 -9925 0
-1971 5253 2825 0
2121 -7451 -3079 0
3214 2356 -1902 0
1163 -6339 -4806 0
6648 -7462 2293 0
5801 2408 -1776 0
5474 -2536 -3404 0
-59 -5561 -6784 0
4309 8734 -9407 0
-9081 -9894 2144 0
184 -6762 -2631 0
8387 8760 577 0
-4154 -7489 -6781 0
4292 -5744 -6253 0
9357 4958 3803 0
-1573 5365 -7651 0
-6301 4311 -6607 0
-1103 224 -3426 0
-3904 -5724 8308 0
-8316 -2850 251 0
2583 -4562 -8546 0
-9368 2621 -3991 0
1818 5916 7671 0
4806 -7764 8543 0
-6100 -7751 -4897 0
3216 -5609 -4830 0
2675 -7838 6242 0
7316 1090 -2074 0
-6760 868 9474 0
-9835 -1876 4540 0
-3474 -8166 4078 0
-6693 3392 -724 0
-3552 5604 7209 0
-2979 3202 1218 0
1621 -8627 1202 0
-4425 -8322 3774 0
-2231 3593 6133 0
5195 -8484 -9050 0
-46 9860 9610 0
-9204 9652 -3037 0
1061 4460 9790 0
8588 1251 9755 0
-2373 -7916 283 0
-4379 -6954 7752 0
-7973 -1425 -8994 0
2728 -7629 -4772 0
6651 1345 1533 0
4565 3502 -3947 0
-7399 8459 -4932 0
-5026 4539 8635 0
-9306 -1266 -8074 0
5151 -1599 -8430 0
-784 -7750 5674 0
-7596 5028 5855 0
2090 -849 -6391 0
-5246 6706 -5634 0
-9877 -3856 8978 0
6202 9013 -1875 0
-8313 -200 5848 0
-2126 8295 8844 0
-5739 -7940 -4394 0
-1795 9884 -5467 0
-3246 2253 -7275 0
1260 -8453 3055 0
-8547 -7344 4991 0
-6692 -1025 -8535 0
8632 716 5052 0
-5819 6385 -5630 0
7467 -3403 857 0
1363 -125 -5899 0
-6064 -2551 5770 0
7548 3499 6812 0
-966 -8304 3611 0
1148 7145 -6343 0
-614 6233 -1250 0
-9507 -2839 8068 0
-5280 -3568 -3940 0
-3156 -2415 -2032 0
1880 8297 -8273 0
778 2504 -751 0
-7552 -56 -8422 0
-5089 1917 870 0
7055 -8213 -244 0
100 -7110 6559 0
6018 9607 -6869 0
6076 2079 -2378 0
6024 8679 1504 0
735 6095 -4847 0
-8020 -3632 995 0
9481 -8138 -8712 0
-3512 -4601 2052 0
-3777 -6208 3400 0
992 8820 -7802 0
-3962 -6760 6709 0
-8589 5556 4225 0
2694 610 -3040 0
-3503 -5370 -2827 0
-8307 -5643 9790 0
6311 -3594 9195 0
3808 -6825 -5092 0
6041 -6151 3428 0
-5670 -5825 -3579 0
-6869 -95 -2426 0
-2976 -6815 -6523 0
4801 3319 -97 0
-6361 3077 -7492 0
4003 8245 -1304 0
1854 8505 -5346 0
7400 9519 7979 0
3419 -1282 -6523 0
9974 915 6104 0
7139 9993 8057 0
-1658 -3168 4084 0
-9190 5384 -1103 0
-7905 -2628 -6001 0
1852 -5146 -2913 0
-4241 -968 9916 0
2438 5919 4010 0
-5886 -1475 -23 0
1891 1964 -6262 0
1413 -234 9352 0
-4203 -7090 -6909 0
673 -9373 -4340 0
-4809 -917 4533 0
429 -4790 -6427 0
-8803 4979 -4204 0
-690 -242 -9460 0
-4266 -1716 -1186 0
-4507 837 481 0
8256 -729 -1710 0
577 758 -5471 0
4132 -57 8746 0
2046 -4528 6962 0
5130 9374 4113 0
-7232 7715 -3633 0
-7670 -331 -1566 0
-7236 6054 1505 0
7938 -9624 -7397 0
-1156 -4529 9487 0
1069 -8446 3544 0
-1836 2261 -6101 0
1274 -6477 359 0
-3659 2099 930 0
9081 -2983 -9346 0
1754 6452 5046 0
7707 3822 856 0
-1334 -6826 -8028 0
9669 8000 -5501 0
-2843 -5427 1598 0
2748 -1821 -4412 0
774 6433 -7471 0
8367 -2965 3714 0
4076 -2454 7434 0
3776 -8810 650 0
419 5734 834 0
6950 -2209 -3960 0
8574 -8584 8122 0
-7745 7007 4523 0
4872 -348 -3469 0
-4344 -5786 -1793 0
-1199 -4658 9780 0
-418 -9970 -4253 0
-6374 4049 2147 0
-1490 3141 887 0
2926 1123 2456 0
-8374 -7292 -9537 0
-90 -5349 3078 0
5489 -7885 -9303 0
3993 -8898 2398 0
3445 -5661 2679 0
3865 -8548 6002 0
537 -5551 -6113 0
-3261 764 -3869 0
-9545 2942 5504 0
4726 3774 9027 0
-4712 -5034 4469 0
2811 -9763 364 0
7809 -5183 -9232 0
215 6137 -203 0
6708 -6624 4213 0
-653 -9884 -1371 0
-5343 1740 -5786 0
-1784 6897 7598 0
-8140 -5289 -1763 0
-2945 4265 -1574 0
-8069 380 -8078 0
8045 -7106 -353 0
-1496 -7023 -9706 0
-2115 -4005 -9146 0
-9697 -9819 -8209 0
-2312 -3530 8455 0
1288 -6491 7928 0
5104 7254 2024 0
7025 -8612 5859 0
-3614 -9941 -4430 0
-7960 -457 7468 0
-7699 1433 6491 0
-8981 6868 -3803 0
-8310 -3826 3960 0
-504 -8005 -6128 0
-3762 462 1507 0
2302 -9324 -5446 0
3888 -8750 -6318 0
4428 -9816 -9607 0
-2295 -326 8505 0
3235 3217 5071 0
-3621 160 -2742 0
-3015 -1667 7873 0
-413 -6055 7817 0
674 -5188 4055 0
-4626 1910 7369 0
-9367 -7072 5115 0
-886 5608 -1846 0
-1594 8174 917 0
299 -1222 3565 0
700 3429 -7874 0
4942 -2460 8404 0
-3663 6325 2979 0
-9765 -6180 6474 0
-6083 7177 -7812 0
9804 -4568 -832 0
-3330 -233 1420 0
7244 9975 6263 0
-7409 6387 -8370 0
-1177 -2098 4724 0
6927 4983 -6640 0
-5264 -7162 5196 0
-8454 -8299 5514 0
2823 -6090 -5159 0
927 -6566 5490 0
8175 -8440 -7433 0
-5146 -3346 -1343 0
6927 5533 -6840 0
1228 1585 -466 0
4852 -7199 -8600 0
9876 6557 7969 0
-5789 6139 1974 0
1390 2247 2675 0
2559 -4278 -3711 0
2865 4865 2783 0
-7484 4566 -362 0
4564 1241 -1906 0
-8188 -2416 -9100 0
-6728 -4245 -6936 0
-8099 -8639 9746 0
1236 4383 -3333 0
-2921 6841 5048 0
4401 -3150 7515 0
1031 3028 265 0
-2407 -4973 2222 0
-5872 -2839 -5369 0
7750 6041 3547 0
5546 5062 4475 0
1425 -6701 -3186 0
-2701 -2960 -5792 0
43 3131 -1914 0
-7907 -2694 7794 0
8950 -6349 -8941 0
3614 630 -8082 0
-1492 -5769 -1805 0
-3461 4090 9650 0
8201 476 -3499 0
-5588 -7051 7419 0
-9937 3192 672 0
-8805 -1585 -3317 0
4442 2436 -946 0
-2181 1811 4975 0
-9303 -317 1292 0
7755 -3760 -2939 0
192 -2400 -1027 0
1823 6971 -9433 0
-3082 6954 -7339 0
-512 104 1261 0
-3296 250 -125 0
-739 7770 6976 0
1160 9955 -2154 0
9619 -6264 -805 0
-7647 -8244 2235 0
3590 5487 3445 0
6162 5503 5416 0
9945 -125 -8461 0
8077 -3302 3253 0
2264 5988 -2130 0
-2028 1734 -756 0
-9342 -8934 -7366 0
9051 -4986 -164 0
-8431 -2882 -718 0
-2650 731 -9930 0
3344 7952 4982 0
-8450 4002 -1886 0
-4132 8590 -1493 0
-756 9950 2902 0
3489 6925 7083 0
1139 5256 -3176 0
-7160 5679 174 0
-6483 -4231 2784 0
1257 -8156 -1849 0
7457 -4504 -2587 0
1090 -6796 -4561 0
-1836 7008 -4595 0
8383 -3337 4501 0
4816 6667 2797 0
-8524 6668 5994 0
-413 -4065 -5404 0
2076 945 -1543 0
3358 -6357 1220 0
-1173 -4495 7899 0
6193 9267 8292 0
6493 9246 1656 0
-26 85 -471 0
-3166 7681 -2022 0
-4772 2865 -8642 0
-4856 4506 -4504 0
-5227 7764 -4224 0
-2301 -7927 7850 0
6072 -6901 3234 0
604 5685 6144 0
1927 8307 2069 0
-6102 8006 -6298 0
-9544 -9536 6549 0
7094 1631 8915 0
-3899 -6253 7073 0
7679 -5736 -7257 0
406 -4495 3114 0
-8281 -8795 2023 0
-6914 2383 -5828 0
6558 -7942 5524 0
3970 6649 7752 0
1616 4708 -3242 0
4016 -3292 -4577 0
-4434 7611 9943 0
-757 6452 8186 0
4378 2975 -4901 0
-2932 -5486 -7778 0
-3734 -4655 4120 0
-3242 -867 -3117 0
6790 9693 3303 0
-9857 7162 138 0
6447 6281 -2903 0
-2613 -8163 1068 0
4172 5805 -8857 0
2819 9291 1250 0
2445 -247 4967 0
9375 -8516 2948 0
5138 -908 -4028 0
-1308 474 -6967 0
-1070 4511 2551 0
8107 5801 7248 0
-4878 -4956 1198 0
-3313 3179 6625 0
3380 -183 4507 0
-2067 -1087 -5409 0
1956 -840 7320 0
9808 -5156 -7130 0
1644 -8904 8604 0
6662 -2614 -2368 0
-3552 -8928 3561 0
-9351 6345 2311 0
-2304 9539 -3146 0
5618 -6830 -2158 0
-3878 8721 -5448 0
-8778 -946 5900 0
3757 -670 -8515 0
9162 -4224 3734 0
-5461 -8734 -7689 0
8964 -353 8659 0
-4204 9132 -8310 0
-5961 -4434 -9108 0
-9506 -7623 -1195 0
-4355 6788 7197 0
-1322 -8990 520 0
-3367 7338 9693 0
3477 -5352 -6323 0
-4982 9952 -3036 0
8028 514 1492 0
-3059 2621 -3013 0
903 -9308 -2474 0
9201 -2549 -733 0
8782 -3679 -2051 0
5187 -4350 6715 0
-1440 -1536 -7738 0
-3558 2702 -3083 0
-4139 -4666 3107 0
8278 3343 -8316 0
-4413 -6927 627 0
8381 2228 -7658 0
-4448 3355 -9153 0
7051 -9498 -6325 0
-1685 4586 -4082 0
-3597 -300 9637 0
-3427 9376 1569 0
7502 -8142 6817 0
1887 -8914 4774 0
-8421 7493 2624 0
-7486 9403 1893 0
-9580 -1827 -9139 0
-4300 -291 -4220 0
-8522 5340 -2270 0
-3901 1796 2193 0
5929 2484 -2581 0
5448 3475 -4738 0
7332 -1572 6614 0
3313 9788 -7757 0
3190 -5450 7191 0
6408 6773 2618 0
8057 -1953 8122 0
-8964 2480 -8881 0
2267 392 9439 0
-8394 -4556 3882 0
-7023 6968 -5253 0
-7915 2326 791 0
6918 1437 3846 0
5940 -3800 8904 0
-2804 -3811 -779 0
-7254 7802 2685 0
-6392 3468 5715 0
4476 -7883 7037 0
7362 4764 9971 0
-8932 -8902 5639 0
6791 4620 9603 0
9504 -24 -9896 0
1556 3847 -1658 0
-9476 -539 -5163 0
3697 3561 -9795 0
3089 6259 6656 0
2460 3214 2598 0
-8869 -9286 -7384 0
2518 -8519 1734 0
9372 9321 -3713 0
-2115 6144 -3230 0
-9422 6480 7748 0
-6853 1431 -2549 0
-5792 -9419 -8583 0
7937 -2918 -1241 0
790 1038 4251 0
-3969 -6726 -6088 0
6696 8001 5260 0
-1746 -8159 -1069 0
-7741 2168 4372 0
-7401 5458 -1652 0
-3373 2733 4294 0
-7300 5064 -7220 0
-946 -2135 7728 0
5397 4777 7849 0
3493 -8574 -5285 0
6518 -3995 5967 0
3584 -3939 7525 0
8781 -1696 -4183 0
-1596 -6311 8151 0
-2710 -4496 9577 0
9937 2740 -7558 0
2204 1334 -746 0
5474 -2982 -9646 0
-2762 -9163 1337 0
9487 7423 7286 0
938 4692 2671 0
-7281 3563 -1763 0
-8038 -7745 8228 0
-2097 -8362 -1229 0
880 3422 9546 0
5899 -6940 -7791 0
9378 100 -5084 0
2540 -4957 4359 0
-1608 9926 9193 0
-1983 -3274 -1617 0
-4517 1957 -5450 0
-3167 -4689 6763 0
1838 -1142 -35 0
642 9885 -1613 0
2562 -619 -8609 0
-9183 9877 -3170 0
619 7503 -7470 0
-9623 -8568 379 0
9646 4929 3850 0
-1778 -1075 -5323 0
464 -1146 -2398 0
-3554 620 2025 0
1266 2004 -2479 0
7689 -5958 -969 0
2363 -6838 -2697 0
601 607 6364 0
-8794 -9439 -8640 0
7143 731 2367 0
9642 -6667 -7936 0
8250 -718 8888 0
303 3776 -22 0
-1419 -5018 2322 0
5807 2312 -7450 0
2929 -3263 506 0
-6731 -2850 7792 0
-6231 -8316 6713 0
-4093 -1987 -3416 0
7796 -5406 -2054 0
7251 -4435 3918 0
-5004 -6497 7509 0
-9054 3281 9863 0
-4454 3662 5040 0
231 5325 3031 0
6403 -7325 2659 0
-3573 -8932 -4833 0
7707 -1474 3311 0
-192 7693 6151 0
-3145 -907 8250 0
3397 4242 683 0
1949 -3379 -5312 0
6795 2973 6525 0
4974 -3121 -910 0
-3783 873 -6487 0
8948 -7815 -363 0
3591 8886 -1642 0
8454 1768 -8181 0
223 8606 3485 0
8211 -4994 7600 0
-9212 790 3406 0
6361 -1040 5418 0
-2407 3282 -6127 0
-5003 -1140 -157 0
-184 -6678 1682 0
4161 6728 -3079 0
-6970 8563 4031 0
94 -9793 -226 0
-2435 -3024 7489 0
2580 4034 6869 0
9735 5429 -1505 0
4457 7583 -1646 0
6246 -99 5946 0
-7280 3171 -9602 0
1214 6065 8004 0
-1523 3565 -7253 0
6982 2777 624 0
-8983 -7525 4041 0
-8474 -368 9933 0
4618 -7390 1664 0
7170 6749 3114 0
-1108 -3660 5916 0
-4870 -9152 9585 0
8665 -5408 6741 0
-1941 -6041 -6780 0
-9471 6946 4037 0
-9310 1791 -326 0
-119 6960 2727 0
-2488 -598 -49 0
-5195 -3843 -7351 0
966 -1644 -9342 0
1954 4189 6921 0
-8349 -9338 1551 0
-8236 5632 -2978 0
2269 3689 -7485 0
5609 -7214 -4376 0
579 3706 -9591 0
5950 -7679 8219 0
-3954 -8510 -7009 0
8976 -4958 6401 0
-565 345 -1881 0
-3678 1431 6322 0
8799 7722 -9076 0
-1869 873 -8053 0
-3942 -2877 3349 0
414 9960 -1401 0
7171 -7835 -9185 0
3638 6944 3291 0
-5483 -5835 2677 0
-3662 8222 7177 0
8309 -5175 8083 0
8149 -4288 -1627 0
-1332 7541 6271 0
1418 -9708 -3599 0
-2315 -3417 5255 0
-8814 2386 6667 0
-6743 -3135 -898 0
5725 648 6671 0
-9694 -628 -6810 0
-6908 -4950 1969 0
9653 -5001 -6997 0
7004 6252 4708 0
-8713 -3151 -7736 0
-7181 -1373 -4837 0
5371 6104 5130 0
5361 -5371 9698 0
1329 995 -5061 0
8479 7118 3512 0
4909 -9754 5062 0
-9046 4816 -2156 0
-9899 958 4004 0
-1785 -8305 -2633 0
-4276 -7880 -6764 0
-68 6709 -8457 0
7039 -7489 -3488 0
8769 -5540 7157 0
-5920 -5129 837 0
-4839 -1387 1456 0
9890 5294 -4601 0
-7030 4737 -2817 0
-1709 -2630 2845 0
-2808 5430 -1744 0
4344 783 2792 0
7015 -3405 -1430 0
2027 1598 -3084 0
-5103 -9636 9811 0
1945 -9249 5440 0
7448 5305 -2771 0
5296 -4311 -9551 0
-8341 -9929 3868 0
-7831 -1309 3935 0
7804 7072 8936 0
282 7484 -9148 0
5061 -5628 6552 0
7024 -654 1678 0
3788 9746 -280 0
5221 4812 -9320 0
7044 49 1073 0
3363 6214 -1881 0
589 -8004 2748 0
3160 -1410 -4860 0
-5177 -5776 -8228 0
7835 -1885 -8640 0
3089 9379 5125 0
4543 -1026 1519 0
-9492 3399 68 0
-5550 6966 7381 0
-6064 7855 -4474 0
-3571 -4475 -220 0
7125 4601 -1543 0
7809 -5548 -3096 0
-2321 -974 4515 0
4886 -880 -9882 0
9000 8210 5887 0
-3446 -8085 7504 0
9679 -4770 1685 0
4534 -520 9869 0
8619 -2757 -9747 0
-6769 -1180 3377 0
8050 6 -327 0
-1663 630 -3681 0
-3486 6179 -7288 0
-9490 844 -1237 0
-3091 7086 2934 0
7976 8661 -4413 0
1762 -5938 -61 0
5301 9167 6280 0
333 -8344 9220 0
676 7218 6167 0
4223 -6075 -8730 0
4455 5852 5176 0
-386 8963 -7324 0
5601 -2698 -1976 0
9486 -1451 2403 0
-8604 6819 -8878 0
9190 -8198 7762 0
-1877 -2595 2049 0
8218 734 7388 0
-5411 8430 133 0
9946 8675 -7439 0
6608 4540 -2059 0
-2112 7340 -260 0
-1393 -8005 -3828 0
-4784 4007 -9147 0
4599 5521 2066 0
4200 -8523 -3301 0
9192 3754 3255 0
-8704 3512 7362 0
-9946 8213 8293 0
5330 -8169 9096 0
-5751 -5892 9974 0
-156 -6245 -7542 0
-4090 8326 -7358 0
-4736 8399 -8085 0
-7479 9195 -7573 0
-2684 -5822 -472 0
-1049 -8667 2429 0
-5427 -6899 -5858 0
-2205 -9250 8023 0
-6002 -115 -2406 0
610 7371 3529 0
2028 8443 4927 0
3917 3013 7693 0
-7170 -2191 9784 0
-8765 160 3328 0
-3912 3674 3160 0
8131 -6033 5125 0
1867 4415 -6408 0
-1287 5251 -1361 0
7023 7340 4934 0
164 1669 -1607 0
9449 1062 -3327 0
-6464 -7849 -2648 0
-5644 -9460 -7298 0
1597 600 4378 0
22 -1031 6406 0
-740 -2260 -1217 0
-583 -2121 -1433 0
-5391 -5982 -9755 0
-9681 -823 1956 0
4665 -2131 4806 0
-5059 6034 -2362 0
3356 -9223 759 0
-8815 -274 -6231 0
-4669 3221 6995 0
1628 -1421 381 0
-6401 -5379 -1603 0
7069 -2878 2607 0
-7082 -4215 -571 0
-8502 -2037 -5972 0
1306 -8951 -2213 0
-6546 -5116 1893 0
6973 2843 -2041 0
-986 2183 -4740 0
9764 5569 -8468 0
299 -8115 513 0
-4856 -8938 -4971 0
-9915 7658 -5073 0
-9371 3191 5450 0
3283 7622 6491 0
5554 9249 5329 0
9478 4899 -6566 0
-2716 7169 -7743 0
-7813 6342 -1096 0
-2493 8531 8381 0
-7481 9021 -5121 0
7358 -9999 -3411 0
-6340 9876 2291 0
-4779 7687 -752 0
-4456 -6352 7743 0
-7343 -9954 -7024 0
-4010 9314 -895 0
5138 -6908 -8282 0
-7491 6505 5856 0
-3575 7449 7262 0
-6743 9288 152 0
-2715 5454 -2035 0
9073 7028 -1716 0
6438 -4379 1617 0
2596 -5441 3959 0
9803 2556 -8910 0
3608 9204 -7097 0
-9640 9044 -6928 0
2555 7101 4953 0
7016 766 -3814 0
-8710 -8500 3090 0
-1828 -7768 6096 0
4903 6830 6680 0
5292 -1233 1305 0
189 -4325 -3546 0
6504 -65 -4297 0
8276 7383 8441 0
-6880 -7999 -3055 0
8257 -2907 2140 0
2789 3813 -1363 0
-377 2743 -152 0
534 -1541 4163 0
2700 -3871 -5408 0
7388 9538 7921 0
6627 3577 1146 0
-1058 8680 6081 0
-7701 9328 7732 0
7475 -8546 6156 0
9823 8001 -3430 0
4702 4914 6640 0
2607 6979 -464 0
-3441 524 9835 0
-2385 2091 1488 0
-7652 3367 -8779 0
8457 1566 -8746 0
8163 9887 -8350 0
8066 -5955 5258 0
-4660 9977 -9341 0
-1309 -7391 -5550 0
2150 4612 -8149 0
796 -107 1888 0
610 660 -3440 0
9451 5977 -9221 0
7046 -2854 9969 0
3874 6731 3169 0
1140 7650 -6601 0
997 -1331 -866 0
-4623 5501 6930 0
7926 -5092 -1466 0
-9476 7259 1196 0
-2216 -4565 2294 0
5717 9480 -6142 0
4915 7062 2147 0
5504 2989 -2907 0
6771 -7119 -1460 0
7325 -4130 -5476 0
-6105 9475 -2107 0
-6808 -1721 -2337 0
-8368 5346 960 0
-8063 4876 4412 0
-8682 6216 -388 0
6221 9639 -4810 0
6331 -3757 -9048 0
-1636 -5694 4583 0
-1633 -5626 1767 0
-6250 -5725 6375 0
2652 -6928 95 0
5656 2357 6841 0
-4636 6065 9293 0
5891 -9982 -6976 0
-8975 3045 6671 0
-4379 -8781 -7393 0
-6260 -4559 -2205 0
-4675 -2864 -7579 0
-4000 5374 7545 0
9444 6558 7764 0
-7283 -646 469 0
-1783 3814 -3579 0
4260 1238 -5320 0
9159 -2402 -9198 0
-5210 7930 -2346 0
-9657 -3307 3527 0
8605 2517 9829 0
3719 -2619 -2102 0
4884 -7472 -4090 0
6755 1795 -3436 0
353 6069 7619 0
9192 1750 -8089 0
-215 -7764 -7466 0
-3773 5072 -4522 0
1530 6831 8130 0
-5345 5992 1797 0
-2714 6173 6052 0
-1322 -8006 -3766 0
1373 6863 -8333 0
-582 1913 6405 0
-1585 1088 1702 0
8682 1573 1044 0
-3696 8597 -9848 0
-8888 -20 6162 0
-2244 5018 -2287 0
6702 1109 9846 0
-2099 -8733 -1602 0
-205 1916 5495 0
-2719 3456 -4686 0
9175 -4600 2824 0
-6418 2939 3281 0
-3022 7731 7770 0
-9094 4496 771 0
3394 -1308 3074 0
8517 8917 9572 0
-4637 4036 5696 0
5312 -715 -8833 0
-6415 955 6160 0
3879 -7018 -1754 0
-3052 -7073 -7480 0
713 5621 8569 0
6922 5874 7059 0
-454 5474 6975 0
7009 8005 -2029 0
-9317 5520 -3682 0
8195 -808 3733 0
-6895 -992 -5009 0
176 -6068 4975 0
-563 -1986 -1609 0
4698 7713 -8299 0
-4488 9846 -9193 0
6676 1037 2085 0
8021 6869 -4749 0
2028 -2908 8380 0
-5124 5042 -3873 0
5483 2047 -7477 0
-2605 -8756 1641 0
-3041 -5211 1409 0
-478 1012 -8846 0
-3139 -6716 -4721 0
-8540 -9254 -795 0
-6813 7208 -3203 0
6661 435 -8430 0
-858 -3746 -1486 0
694 6811 -1517 0
3329 5269 -8293 0
-1244 -7756 -8370 0
-2828 437 9348 0
6057 8097 -1753 0
-342 6545 1192 0
5589 3017 2547 0
-12 -6937 -9304 0
-2060 -180 -861 0
7847 -7195 1387 0
-2589 -1643 6994 0
2857 -9342 -7410 0
2616 6056 1278 0
4970 9218 -1729 0
-5010 -2126 6355 0
351 -2752 6305 0
-3613 2026 926 0
3778 7758 9806 0
-1314 1815 7841 0
-7416 7500 -8641 0
-3659 -8289 3264 0
-6681 -3393 -9194 0
6106 -2985 5439 0
8104 -3189 4506 0
4528 -3264 9654 0
-495 3239 -267 0
7639 -4694 -4617 0
-2330 7446 4525 0
-1378 -4841 9756 0
542 7568 7725 0
-6728 6805 4375 0
1514 3813 5633 0
-8547 3273 4641 0
-721 597 6088 0
-8364 -9239 -9618 0
2440 3468 7179 0
3825 -2666 8916 0
814 -5341 1016 0
-3794 -8362 -3545 0
-2688 5056 -476 0
7371 9792 9834 0
8540 -1554 7049 0
9635 -285 425 0
8576 1078 -6816 0
-7376 -2214 5360 0
1964 -7792 7304 0
428 4189 5675 0
2227 -6342 2802 0
7455 -8949 -200 0
-7190 971 4103 0
4596 -5401 -3002 0
-4869 7731 7863 0
4326 -1922 -5434 0
761 -5098 7440 0
4198 3335 -711 0
-3692 2693 7137 0
9453 5816 5660 0
-5186 2955 2653 0
853 -6955 -5275 0
5977 -9653 -5849 0
6222 6314 1814 0
-2590 -1966 -3366 0
-4062 -6058 -3803 0
2159 -5238 6136 0
776 2950 1722 0
-9897 -9816 1645 0
8354 -6023 7223 0
6913 -9164 -5646 0
-528 3864 -7214 0
2759 7878 -1450 0
2887 9701 -4600 0
6214 -7601 -8439 0
890 4844 8996 0
-5502 -3703 -6870 0
-2092 -1078 -1791 0
-2970 2077 514 0
8890 690 -6382 0
-895 -9632 -1475 0
-6330 140 3956 0
-6326 -5060 4814 0
-1514 -2928 6377 0
9586 -2606 -7833 0
-756 -1175 -735 0
-9240 8948 -9567 0
-4770 -7290 7142 0
3588 -2270 4074 0
-8443 9777 6018 0
-7472 2907 -3384 0
1945 5303 -8663 0
-7802 6545 5018 0
6215 869 552 0
3133 8946 8904 0
7334 -2676 8531 0
782 8851 -1243 0
9379 -9000 5242 0
-639 3090 -6665 0
6292 -4443 2834 0
4532 8157 502 0
5086 1635 1107 0
2863 -4580 -7032 0
-6158 -8257 -9371 0
7 263 -5871 0
7234 -1426 4572 0
-4873 -9505 1785 0
-7482 4608 6603 0
6541 5452 -308 0
-6736 3190 -8958 0
-4430 2673 -7687 0
8891 -9347 6242 0
6444 4933 -4530 0
-2667 2874 -3059 0
-1190 9514 -3293 0
-5750 -671 -769 0
-3380 3253 -8021 0
-2350 -263 -5398 0
5886 927 5176 0
-3159 -6654 -8009 0
1798 -5861 4886 0
7596 -5078 -7618 0
-832 4335 -4961 0
7259 -7681 7184 0
9408 6744 3092 0
-7341 6950 6319 0
-5998 1292 1677 0
-6979 6419 -4019 0
-7920 7868 -7512 0
-4556 -9508 7268 0
2217 -6324 -4431 0
-8307 1390 3902 0
-6372 4657 6962 0
-6692 -6532 9641 0
6754 4303 1457 0
-5699 -6994 -8581 0
-2694 2015 9166 0
-1047 7536 1354 0
-5584 -6445 1160 0
-420 -3395 1306 0
3315 4599 -4651 0
-6563 -3859 6365 0
-410 11 7242 0
-7024 -8175 4518 0
239 -6078 8546 0
1589 -651 -7380 0
-3853 -5856 8048 0
-9092 -5678 9015 0
-8159 7426 -9571 0
2612 -9050 -6531 0
-2329 -205 -4908 0
-1660 -1602 4418 0
-1619 4342 -5871 0
-9567 -9398 -2842 0
9897 5877 4250 0
-6588 2817 -465 0
-9991 -7293 -9568 0
-8475 501 1134 0
117 9617 8996 0
101 5641 -5162 0
9248 9545 -9134 0
-5462 -2649 3436 0
1668 -3611 -295 0
-5827 -2660 1758 0
6007 -3410 -5002 0
-7374 4090 -392 0
-5064 -3857 -3380 0
7518 -2083 -5643 0
-1746 -6472 137 0
-4091 3415 3759 0
-1506 -6069 -3115 0
-2445 -5305 5338 0
-8260 5130 6682 0
-4887 999 3830 0
7178 -3446 595 0
-6384 -5318 8464 0
-270 5975 5879 0
-6370 1325 9782 0
7070 -3655 -5577 0
-1926 2056 -5981 0
9654 -5904 -9368 0
-148 -7646 -8914 0
1048 3262 427 0
-2417 307 -9861 0
8895 -2173 -1735 0
12 7758 -882 0
2617 -8292 -5450 0
5984 5982 3798 0
-1029 8464 8606 0
-8033 -9696 4627 0
2781 438 -508 0
-2558 3445 5542 0
2305 -3505 7679 0
4607 -6772 -4210 0
3733 -8558 -7090 0
9208 -378 -8453 0
-7151 -5057 8740 0
5856 -1730 2087 0
-2451 -9650 -4512 0
6606 9329 -4276 0
-8596 9975 -14 0
-4179 -2924 2607 0
-9615 -3529 2849 0
-2586 -6080 1996 0
-8927 9366 -9917 0
526 -9108 2423 0
-8677 2616 5266 0
2069 -2854 -7416 0
-5616 -5149 -1172 0
-3699 -3781 -8663 0
-3121 -3749 1643 0
7812 7665 9619 0
9491 1417 9126 0
-3341 1178 -9213 0
8913 5252 -6352 0
-2091 -3946 7634 0
-1005 -8470 -4645 0
5220 6977 7649 0
1642 -1097 -3936 0
-2678 4856 7519 0
11 -6496 -8558 0
-5462 872 -3431 0
5189 8911 -6124 0
6986 425 3990 0
7106 -6955 -1365 0
5858 248 8427 0
-5068 4233 -7017 0
8592 -1968 -494 0
-8731 6342 -3936 0
1853 -7651 -119 0
-9696 -1373 -7218 0
-604 -5665 698 0
7687 1578 4149 0
-7393 -734 5911 0
-4607 -5001 -1911 0
1680 9155 3242 0
5465 -8439 -1403 0
5559 8628 4092 0
-6739 8940 -8627 0
-2158 8288 -6815 0
1288 -4956 6041 0
2694 -810 3662 0
-249 -165 8231 0
5952 4802 -1016 0
5622 -8472 -5306 0
-523 -6500 3186 0
-6999 -9238 1922 0
-4046 7487 7 0
6076 6851 1931 0
6019 4600 9231 0
-5342 8292 -8727 0
-4315 1721 9892 0
8651 -8158 2159 0
-6294 -4086 -3601 0
1914 3907 4708 0
-4599 922 -4489 0
-5858 -8903 4808 0
-1816 7071 -4953 0
-8275 3094 -185 0
-9658 1045 -307 0
7506 -2051 -6026 0
8491 -8848 4663 0
-9623 -6409 2645 0
-7263 3416 -9494 0
3920 2425 1929 0
-2926 -5614 -1704 0
-2527 -2627 4929 0
-3495 -7325 -4529 0
4953 6256 8665 0
-9563 -5563 -5333 0
-6489 -3415 9277 0
3602 3914 -3298 0
-6627 -1989 6086 0
-2387 -4518 -3483 0
8649 949 3054 0
-4344 7575 1793 0
6163 -3274 8676 0
2802 -3879 2482 0
-3459 6208 6597 0
-1088 5330 9457 0
-2360 1695 -2659 0
7880 -849 -175 0
9574 -699 4912 0
-3116 9812 5415 0
-1933 5281 -5782 0
6914 5774 -5369 0
-325 -2646 9370 0
9160 -9727 9414 0
1300 -1636 3644 0
6650 8619 5386 0
5287 -1673 -4185 0
8314 6749 -5986 0
-5364 3169 3358 0
-7363 -9634 -6923 0
-4028 -352 5010 0
2968 6317 3431 0
6175 -686 -7049 0
7998 253 -3756 0
-3158 -1995 -9479 0
-8087 1475 -8390 0
-8439 -1234 -1381 0
-1804 -976 -1670 0
5188 8837 8692 0
6745 3184 8842 0
2639 -6231 1724 0
2625 7406 1962 0
4792 -4647 -7760 0
2663 6508 2633 0
-9201 -2332 2509 0
-891 -3342 -5128 0
-1895 -9329 7574 0
5428 -6131 5242 0
-6811 4678 7600 0
-964 5057 -4617 0
2696 3945 -2035 0
-6982 8420 3340 0
-9016 -9860 -5329 0
6826 6801 -1490 0
6670 -5944 -4363 0
-8192 -6577 1620 0
-9233 -7718 715 0
-3756 -1680 -4824 0
-3592 6800 5148 0
-8146 7170 -1976 0
7123 -361 4725 0
4872 -7369 4682 0
858 9724 8613 0
1396 -978 -1301 0
5145 4611 5183 0
-1356 -1674 7699 0
8987 -9356 -4188 0
-8041 8661 4152 0
-7933 -3382 -9933 0
1926 -9163 9354 0
6160 8569 2479 0
9837 -1236 6426 0
-2576 -3424 1044 0
3764 -6312 8968 0
6259 -5923 -1944 0
1677 -8787 7353 0
4021 -7911 -1171 0
7619 -1624 -3786 0
-7378 -8144 9953 0
-5355 -4771 -4513 0
-9010 5181 3345 0
8719 -8548 -7854 0
2025 7671 -7049 0
4472 4634 5149 0
9491 -9486 -1991 0
4223 -2777 -4038 0
-7840 -8204 8878 0
2328 -9652 -4084 0
-6572 9976 6882 0
-9792 -1607 6943 0
9259 9476 7755 0
-3632 -7196 301 0
9684 1926 7514 0
6064 8911 1483 0
7472 6467 -3321 0
3671 -7034 5182 0
7369 8528 -5089 0
-7235 5139 5907 0
-8900 -4204 4511 0
-619 -8581 4593 0
5099 -691 2070 0
9314 398 4288 0
5548 -1447 -1268 0
630 -504 4373 0
9995 -339 8461 0
-6823 4827 -1828 0
5408 -8232 -9205 0
-7910 1254 1247 0
185 2843 4681 0
3783 -6518 7309 0
-8268 8133 3699 0
2084 -7198 -3881 0
971 -4604 -955 0
9334 -6157 668 0
-2000 -4466 -1714 0
-682 -4332 -3217 0
2312 8534 9545 0
-8549 8329 -9458 0
-7363 -4746 6228 0
4453 8659 5177 0
4498 7267 3507 0
1144 3510 4789 0
6749 3374 -4518 0
7213 -130 -2836 0
-3500 7836 3478 0
-6826 -1898 -1263 0
-6805 2473 -9952 0
-5733 1071 -9127 0
-5786 -2660 8920 0
3605 4017 5730 0
446 6478 9632 0
5907 -733 -5960 0
1672 5408 8083 0
-5017 1414 -9421 0
382 -674 -6866 0
-8460 -3388 9202 0
4288 -5088 8091 0
5167 3286 -9941 0
-2733 5680 -6748 0
-3758 2637 -8932 0
-9342 7573 6188 0
-7418 -6310 -341 0
8508 9285 -6118 0
-7907 8589 -4160 0
-8806 -8418 1343 0
-7628 9552 -5056 0
-7509 -1191 1849 0
7539 -4984 -8649 0
9310 -8174 -4306 0
-2557 -5423 -2544 0
4249 3923 9024 0
9298 -3604 850 0
119 -6099 7968 0
232 -9209 2400 0
5874 -5825 -6037 0
-5863 -6652 9933 0
-2187 6937 -6174 0
391 -4716 -9151 0
7178 -4939 -6147 0
-3450 404 -9093 0
6742 -4062 -2283 0
-5455 5039 8615 0
7650 5207 -6735 0
7323 -6637 8970 0
-5105 9634 -7482 0
700 -7480 8441 0
893 9806 -1931 0
4869 9183 594 0
777 2382 -9764 0
5778 1913 -6947 0
-6205 8829 2890 0
348 9456 1944 0
-3021 3987 -1199 0
-7616 2554 -171 0
5347 1012 5216 0
924 -3029 -795 0
4489 -7436 -49 0
-5702 -3729 -9468 0
9514 7503 4799 0
6839 5154 -1510 0
-1335 -4902 -5277 0
8701 7097 -8327 0
-6217 -3583 1131 0
-810 -8873 -4958 0
1995 -6300 -9268 0
2821 -3111 -4702 0
-3027 -9313 -4329 0
6693 8928 5565 0
2219 -7090 4422 0
-2296 -8139 7412 0
9675 4196 -3699 0
-3597 6944 -1595 0
1920 5787 -7933 0
3033 5137 -1159 0
-8293 -8858 2841 0
4004 -9877 -9416 0
997 -3165 -7143 0
6820 7006 7318 0
-3802 -5996 6877 0
3229 8269 -1740 0
-9272 2476 5813 0
-6782 3476 9086 0
5449 6283 -9580 0
5781 4230 -8817 0
6318 -3821 6899 0
5431 -28 3611 0
7542 338 -710 0
2787 -6443 9303 0
5 5462 6012 0
4560 -1467 9793 0
9056 3171 7565 0
-58 2138 3551 0
2637 -3717 1359 0
7361 2747 -6836 0
5674 3715 -2956 0
3822 -1812 -2547 0
-40 -4537 661 0
-8177 7652 8262 0
-6164 8020 1468 0
-7284 -6433 2699 0
5636 330 6139 0
5289 1002 -4910 0
2508 9597 -7222 0
7281 1524 1493 0
3147 4017 1076 0
7446 1682 9873 0
4452 -8649 -1586 0
-1897 3773 3191 0
-8516 -3015 -7188 0
-4692 6803 -6839 0
2557 -2258 -4349 0
-4934 -5832 -2526 0
-907 3198 3092 0
3240 -2965 -6979 0
8737 -6687 -9613 0
1506 -9484 2252 0
-9549 -6643 -2640 0
1288 -9433 -3377 0
2043 871 9032 0
1416 6519 -3307 0
-5808 -5455 3103 0
-563 9671 -4613 0
3514 3538 -9094 0
-7915 7684 -2335 0
3492 180 9542 0
-3419 -2714 9610 0
-9256 -3205 -7721 0
2983 -9282 3032 0
-3788 5333 3372 0
-4190 -6372 8390 0
-8633 1479 4010 0
1348 8994 5167 0
8 4681 -5882 0
7984 -6100 -7713 0
5772 -1272 3292 0
7849 340 -4328 0
8950 3925 2464 0
1243 5499 -5897 0
-3217 4235 6087 0
1852 -9883 868 0
-2903 -5501 -1633 0
-1123 -2010 -6854 0
686 9262 -4309 0
-7577 1438 3741 0
2904 2309 8067 0
-5127 7188 -5829 0
-3511 -3849 8238 0
6676 7086 -6237 0
-3183 -5622 -2043 0
1002 -5794 738 0
-1325 -9758 -1287 0
-8125 -6841 9793 0
4772 2289 -1186 0
-631 -5331 -1124 0
-8089 8279 -613 0
-5564 -7418 -7637 0
1095 -3960 -5332 0
-1280 9127 -7908 0
4120 -6093 4350 0
7310 -5523 2425 0
9375 8685 -3115 0
8802 8653 4215 0
4788 -3813 7332 0
-1229 6072 -8374 0
-7679 -2390 9388 0
6557 3522 -4671 0
-5055 2127 -3260 0
7524 -7918 9382 0
-2574 2395 8092 0
2375 7758 -2126 0
9348 9927 -5881 0
1628 -7547 -5184 0
-917 556 -6518 0
8684 -8876 -252 0
6092 -6535 -2585 0
1959 -8 4724 0
8975 1311 4126 0
-3215 -9427 -4852 0
-1112 -6445 -7356 0
-7829 -2055 8326 0
1540 2594 -9792 0
2362 8793 -8488 0
8163 -3665 -950 0
-2729 9852 -8520 0
6562 -8922 -2352 0
-6955 2154 -7366 0
-4774 -4922 -3246 0
-5298 6796 5510 0
-2409 2636 -3473 0
254 -9248 8818 0
-5005 9204 783 0
-1869 -3064 -6207 0
-6532 6595 7099 0
-6355 4623 660 0
6198 8767 -2775 0
-4713 7198 9638 0
-5366 -4197 -5887 0
-8189 768 -5655 0
-6417 100 7594 0
-6743 6610 2282 0
1531 7029 6569 0
-729 1700 -8228 0
136 -8141 3668 0
9809 -9460 -3139 0
2946 -1108 -8006 0
-929 5645 -7964 0
3732 -7468 5574 0
8321 -6098 1665 0
7083 2139 3249 0
-2650 3240 7558 0
5347 -280 9238 0
3669 6463 7889 0
3140 6558 1658 0
-8022 -5323 5491 0
-516 1810 8290 0
533 -9610 -6457 0
6481 -7693 -4729 0
-4484 5309 -2756 0
-7687 -8556 -3434 0
-8476 2627 -6802 0
7539 -1842 -3420 0
2880 -7109 9445 0
9238 3864 3984 0
-2939 -7334 3285 0
-8857 -259 -2240 0
-1759 7343 4261 0
4497 2957 5574 0
365 8230 -8102 0
9465 -5076 -8396 0
1579 -9458 -6340 0
-5421 1760 -3844 0
9168 9488 -200 0
-3071 6223 365 0
-6232 -2487 3534 0
-6935 1920 6835 0
-3085 2787 7788 0
-5858 628 -7022 0
8505 9194 -1627 0
-8050 -4859 3408 0
-484 140 189 0
-5367 -7029 4335 0
-4517 3566 5604 0
6876 3944 -1003 0
4861 -9309 3550 0
-6906 4289 7215 0
-1556 -9811 2076 0
-8231 -6741 -6794 0
6375 1468 -2547 0
7897 -4971 7034 0
3654 6480 -9028 0
-6910 9281 -4387 0
5337 -9037 9290 0
5601 4318 6673 0
7579 659 5944 0
8218 983 6333 0
-3765 6706 8531 0
8762 -2409 -1001 0
-6563 -7847 3919 0
9002 -1132 5238 0
-9724 -9593 -9348 0
287 3768 -1420 0
-5986 896 -8179 0
5028 -8233 1487 0
6426 -7051 3456 0
4463 -7220 -1508 0
-6933 5074 1661 0
-2263 9161 -286 0
-8686 -44 -9318 0
8404 1490 759 0
7866 2531 -1085 0
-2418 1879 -7353 0
3844 8560 -3642 0
-4233 -5783 6737 0
2287 7845 -8638 0
-2424 -7869 -8673 0
1826 7745 6116 0
-2277 3763 9363 0
2981 1734 -414 0
-6835 5718 7059 0
8043 2266 -9032 0
-8847 6484 -6017 0
-8139 -5468 7152 0
-795 -3309 -2459 0
-7056 -4055 6046 0
-8985 -1448 2518 0
9582 -1494 -1319 0
9993 1900 3637 0
-5961 2950 -6492 0
6217 1105 2919 0
8583 7650 -8453 0
-9227 7816 8049 0
-4834 3618 4951 0
-7119 8380 -5800 0
7810 6731 -1781 0
-2008 8475 -3862 0
2985 -330 -879 0
96 -7767 1922 0
8060 267 38 0
7810 -5425 6814 0
3157 -4987 -5652 0
7126 -9211 -338 0
3851 -4934 -3307 0
-2042 -8223 1769 0
1988 -6048 7420 0
-6967 -6410 7947 0
-7830 -9597 -139 0
6414 -2320 2809 0
-8870 -6284 6734 0
5541 4683 -4843 0
-2754 -3124 -1660 0
-9427 6266 -6685 0
-5997 -5561 -3599 0
-8605 -5555 -1426 0
3730 7870 684 0
-3601 -8680 -731 0
-2256 295 4125 0
-3217 -7693 7099 0
-3040 8597 6967 0
-956 -7555 -3303 0
-5027 -7861 -7502 0
6686 -3456 -6599 0
8731 197 -3959 0
1670 -5126 -9121 0
-6086 994 3306 0
3049 -3419 -5709 0
-6176 -4032 -3154 0
-5368 6866 -5109 0
8890 -5103 6412 0
5321 6085 -3537 0
1268 8348 -4508 0
-1004 -6946 1291 0
-1897 2383 7282 0
4292 3328 -9816 0
9229 -2525 -7926 0
-6056 -458 6928 0
-8636 7147 2725 0
771 424 -9892 0
1236 6388 -9711 0
-8918 4166 1547 0
-9254 3111 5703 0
-6360 -2077 1686 0
734 -4253 -7244 0
8352 1592 -3740 0
-9382 -3486 -3629 0
3636 -4280 -746 0
-7884 4155 3466 0
-3757 6910 1478 0
2270 -7602 -1998 0
3731 -8473 5921 0
-7145 -2358 -7834 0
-5812 4872 -3289 0
224 3759 5208 0
6692 3139 3033 0
-7744 -1891 -2015 0
-6964 -4039 2024 0
-7027 -2554 -528 0
-4403 7344 -5562 0
1802 -1246 -6054 0
-4403 -7962 7194 0
9708 1337 -1532 0
-3580 -2958 4355 0
3913 8830 4863 0
-2966 -3417 -5440 0
4570 -8851 -8029 0
5064 -9493 8470 0
2031 -3863 1969 0
-2727 3331 -753 0
-2853 -2216 3090 0
8720 -4084 3853 0
-5985 -9709 503 0
5439 -3029 -7876 0
-4829 -6367 3409 0
430 8142 -8287 0
-5929 -3194 -3425 0
-204 -7647 2424 0
-1869 -9604 459 0
-7057 5836 4034 0
4541 -5315 -3069 0
4088 -9745 -7092 0
7365 6776 6346 0
7873 724 8812 0
-97 -7992 7299 0
-8584 -7698 -3756 0
6393 8569 -5681 0
-8481 -3118 4977 0
-8757 -7820 -8434 0
-4963 3729 4556 0
5448 -6495 -5381 0
-3860 -8730 7902 0
-2310 8716 -146 0
-5566 -3258 654 0
2098 2361 -4106 0
-4595 -5857 3946 0
5674 7249 3820 0
-668 3230 -2734 0
-500 -4685 3845 0
-4383 1086 -7787 0
-1305 -1922 5558 0
2407 -1578 6786 0
6567 8701 4901 0
5113 -767 9711 0
9529 3394 6542 0
-7262 -5372 1847 0
8634 7415 5310 0
-868 2162 -4296 0
-472 8195 2247 0
2568 2831 9618 0
-3355 9935 4231 0
-1866 684 -2341 0
-356 -9581 38 0
-5904 -141 -8371 0
2958 -3319 7763 0
-7397 7478 9547 0
7114 -4182 3068 0
9477 -790 -4164 0
408 -7609 -1319 0
-2945 -3905 -9866 0
-8602 3792 -7713 0
306 414 2567 0
-3909 3377 -2091 0
2405 1435 -2007 0
5439 1688 1827 0
-5484 -1007 7278 0
2365 -6610 -2778 0
8266 9519 49 0
3523 -8710 -6555 0
4149 6025 9503 0
-6414 9072 3611 0
8715 685 4225 0
-3405 -6047 3481 0
-5624 9217 8553 0
4378 5608 -6171 0
-2608 7292 -2957 0
2388 3158 6467 0
8559 -9306 -7402 0
-6489 1192 -1229 0
7501 -4615 -8633 0
-8953 6054 -2354 0
2745 1895 179 0
-5015 -976 9073 0
6652 1709 -3293 0
7113 1946 6786 0
-6890 6821 3330 0
7882 8889 -5204 0
8490 -6454 -8217 0
-4053 -3919 -4545 0
-1844 -9844 -7759 0
1380 -9550 -909 0
-3447 4352 -8638 0
-8368 -9853 -8472 0
-2122 7186 -2476 0
-632 -1925 5364 0
-7508 -8996 -8003 0
8231 -7295 9943 0
8090 2018 5818 0
-5055 -9014 -7364 0
-4271 -9634 2485 0
5149 1090 -7886 0
-4581 -8428 6633 0
9020 4382 2959 0
-5452 -3436 8725 0
-1558 -9592 1158 0
2535 -2373 -4972 0
2146 4151 -5435 0
754 6675 -9708 0
895 347 4959 0
-5650 -5206 8226 0
9577 -8691 3892 0
4326 4856 5439 0
-7073 5213 -1119 0
-97 3556 -7468 0
3002 3539 -2065 0
5549 -6748 2183 0
7293 2283 -8775 0
-9064 -2802 2178 0
6167 6359 -7883 0
6470 -3321 -7102 0
-8810 6518 -7224 0
189 4855 -8561 0
7172 -2701 -7066 0
-4807 -7318 7794 0
-9662 -3390 6131 0
9342 680 9849 0
-9950 -9668 2522 0
6432 -2735 -764 0
7916 1978 5646 0
-6197 -9287 9488 0
7380 7154 9999 0
-295 69 -4336 0
1565 -5410 4002 0
-6025 -7879 -345 0
7567 7945 -6938 0
4183 -9401 -3126 0
-9740 -6145 9640 0
-1761 -4793 8226 0
-79 9578 -8173 0
-8619 7503 3170 0
7138 -1590 -9030 0
-2612 -1024 -8032 0
5108 -80 659 0
-1942 -8123 -9448 0
466 -35 -6759 0
1634 -5962 -9969 0
2679 5614 -3950 0
-3590 4397 7227 0
7431 7188 -3594 0
-9328 -8717 3015 0
8852 5718 2166 0
-7281 369 2004 0
-2818 2744 704 0
4538 2111 8969 0
-6133 -8637 4314 0
-2781 -1520 -2929 0
-9186 -794 -9810 0
-9587 9344 -6913 0
-6784 -7663 4225 0
6104 -3668 1386 0
4839 6547 -4902 0
1727 -9604 456 0
3376 5280 2631 0
9616 369 -3337 0
456 -8632 -5582 0
6098 -1925 -102 0
1079 -9775 2906 0
2395 5440 3086 0
1513 346 -5682 0
-6536 1344 930 0
-5210 279 3041 0
-3715 -2474 6129 0
2452 -1735 2537 0
-2269 4619 3106 0
5651 -2179 4036 0
-8354 -4048 3937 0
-9201 -6780 628 0
2410 -8547 -4609 0
1084 -6936 74 0
1556 -3459 2391 0
-7519 -8709 1765 0
-3165 7154 1828 0
7113 5695 4405 0
-601 -5077 6265 0
9252 -7245 -7071 0
736 -3247 -6550 0
-8666 -9476 -3854 0
-1260 8091 -5850 0
9832 -8498 -4332 0
-7173 6231 -1474 0
-9886 8427 5363 0
-9597 9668 6380 0
181 -1028 -5503 0
4074 8459 5312 0
-8795 2614 6931 0
-96 4427 -4462 0
-4664 3210 3011 0
-1415 -9303 4470 0
9647 -7802 -9880 0
-892 9957 7046 0
4676 2959 395 0
-8102 7199 -2741 0
-3494 -6478 -7299 0
3399 5991 -4938 0
-2842 -4000 4801 0
-705 -4800 -2869 0
-8777 137 -6594 0
-4259 -7644 -5974 0
-3367 3557 7632 0
-8136 5672 124 0
-9931 -6200 -9941 0
-4667 -2914 -8 0
9383 -6628 -957 0
5684 9492 -7964 0
-2409 2715 -6766 0
9378 -8256 -6781 0
-1262 -7527 4218 0
3461 -7593 -3105 0
-5275 7128 5079 0
6778 -3515 5475 0
-6645 1577 -4601 0
-6792 -1313 8209 0
-6594 -554 -676 0
5895 9213 6303 0
9153 2585 -2870 0
-3293 -4320 -1899 0
-6999 4169 8011 0
2076 -3123 9203 0
-2977 7417 2408 0
-2303 -7098 -9326 0
4972 -8358 -3658 0
-5446 -3606 5213 0
3883 -8106 8359 0
632 9930 5277 0
-5285 -1877 8299 0
-3558 -5691 -1628 0
8027 -2163 -8513 0
9931 -9375 -7372 0
1664 3519 7089 0
7461 -4248 -6494 0
-5584 7334 -5579 0
6184 -2133 -8346 0
6269 -7805 1128 0
3026 7551 -5684 0
4832 2392 8836 0
-3400 -5396 -4650 0
6633 7448 6025 0
2530 3883 -4896 0
-2435 -3357 5393 0
9 1706 -1500 0
135 -1353 3929 0
2776 -7375 2821 0
-2832 5753 7439 0
-7443 -9589 9566 0
-6358 3580 -285 0
-1538 -5046 -5943 0
-3878 7758 -7493 0
8029 2465 -3114 0
-1468 1551 8585 0
8853 -6062 6550 0
-6586 -7951 -8018 0
9589 -7595 5044 0
7799 -9694 6817 0
726 8063 -7747 0
-5122 5830 -7305 0
1289 -1455 4776 0
8529 -3200 1019 0
9212 -7010 9982 0
1378 -1647 -1602 0
-7659 4576 -2362 0
-6477 9030 -7753 0
1006 -3236 -5102 0
9525 -5222 -5116 0
-6668 -5782 -328 0
1959 8708 3942 0
8203 5133 -4362 0
-7983 7209 -7031 0
-8613 8040 5235 0
-3212 -7712 1121 0
-8090 -679 -4930 0
-6784 -7359 1584 0
7071 5647 -2402 0
9752 7342 -8647 0
-5357 8387 4317 0
-642 6560 2220 0
3105 4556 3935 0
8550 1377 -5285 0
4664 -3143 -9105 0
-5846 -1674 -7872 0
-7116 31 9894 0
43 -5443 -9101 0
-7211 -941 7024 0
-1599 6718 -4533 0
-1762 7421 -6276 0
-6597 -4975 -9769 0
9199 1241 -2945 0
-4043 -889 6859 0
9437 -3029 7591 0
-7021 4831 -3371 0
-3154 1875 -8516 0
8447 -4341 3753 0
-5061 2954 -6566 0
2360 -5977 -5442 0
7516 -3839 5234 0
-4397 -2089 856 0
-6808 336 1234 0
-7421 -2601 8771 0
-721 -490 3869 0
5439 1649 -1512 0
-9240 7343 -2589 0
-9573 6987 8912 0
-9237 3998 -6738 0
4621 4235 -7964 0
1388 -7631 -5336 0
-790 9934 2840 0
7154 51 2650 0
-806 3894 1150 0
8623 -8558 8144 0
-6618 -6549 -4304 0
-8614 6220 2074 0
950 -6216 2789 0
-1460 8030 -4098 0
-1493 -4793 -2697 0
9547 -2129 3469 0
3310 -3201 -6500 0
4062 1667 -599 0
8225 7245 5697 0
1117 2093 6473 0
-1999 -160 2982 0
5268 -3179 8112 0
9887 1902 2486 0
905 1601 5174 0
1070 -8863 -8725 0
-1132 4846 -203 0
1595 7313 -4958 0
-7671 4599 -2460 0
9784 9277 7543 0
2376 -3846 9722 0
-1492 6117 8210 0
-198 -1587 1624 0
-5636 -7446 8791 0
9755 3842 -6267 0
-2900 5480 -2593 0
8558 -5693 -3131 0
6437 -5793 -8693 0
-7518 9213 6472 0
-5249 4916 -2708 0
9827 2195 -5231 0
372 -4812 6434 0
-405 8567 -4919 0
693 -486 -1453 0
-1115 4104 3347 0
-1172 -2555 9642 0
8757 -9685 1288 0
5668 4028 1541 0
-5683 9291 -1106 0
9098 -1058 4453 0
7514 3292 -7641 0
-4547 4093 -5591 0
3489 6367 1001 0
-9162 4078 -4119 0
9847 966 4923 0
3277 7106 -6086 0
-1576 -6129 560 0
-1946 1806 5024 0
-6580 -3611 6369 0
9764 -6619 -9070 0
-1602 3622 -6007 0
7403 8843 -7700 0
-5596 3746 5467 0
4840 -8971 -2384 0
-5439 -8973 8177 0
-2725 -8433 5529 0
-6034 1436 7591 0
-7281 -6116 2048 0
7369 1072 -3418 0
688 -2931 9168 0
-3425 -1614 -6292 0
7809 -8925 8335 0
-8500 -9835 4374 0
-7194 8329 7365 0
-8572 6626 8404 0
-3653 -5233 6794 0
-304 -4885 3436 0
-5901 5541 6101 0
3302 -684 7661 0
2282 -433 8212 0
7833 6333 7338 0
-1735 2676 -7211 0
9930 9666 -1358 0
-8290 7017 1049 0
-4651 -1351 -8236 0
-2828 5257 7417 0
-7105 3847 8511 0
603 3733 -3137 0
925 8622 325 0
-6560 7480 -7619 0
-657 -2465 -5419 0
-3771 -5790 -4189 0
-3569 -3859 -1482 0
8587 3097 8845 0
-2107 -8320 -7626 0
7758 -3221 -8996 0
8426 4793 -1809 0
-4061 1873 3910 0
-1383 -636 2517 0
3263 -5252 2453 0
-9546 2944 -3672 0
6427 -5947 -9912 0
1745 -8270 2527 0
-358 -9548 9231 0
-9174 -1525 -6510 0
7468 5522 -9217 0
-9853 -4480 8967 0
-6182 2544 -9414 0
246 -8566 6932 0
375 -4484 1719 0
-782 9410 4807 0
2658 -1984 2303 0
-5827 -9845 -9341 0
7870 -7242 -1922 0
-7347 -9628 -1847 0
4028 6949 6062 0
3407 -426 1426 0
477 -3139 6785 0
-920 -163 -4873 0
1531 -6587 7299 0
-7054 1123 -3752 0
4521 -1557 -826 0
-2226 -6663 9918 0
8289 -6280 -4100 0
6976 8534 8230 0
4268 -3638 9027 0
7279 9050 -4899 0
-8019 -7049 4268 0
-4692 -7130 -3014 0
9891 -7171 3944 0
8420 -9201 8477 0
4785 7289 -555 0
3399 -6258 1626 0
3556 6407 -1672 0
-1409 7350 -1715 0
-4518 -4110 -283 0
-1119 -6948 -113 0
-4911 7332 222 0
-3334 3958 -6986 0
-4560 7800 7840 0
2225 -428 4336 0
5404 -4672 -5841 0
-4709 5327 1275 0
3110 2608 3058 0
-4502 -5294 5941 0
-3249 6052 -667 0
-66 5386 -4234 0
-3760 -6476 7549 0
4150 3325 -2779 0
2993 -6216 -1190 0
9090 -36 14 0
8485 -6963 988 0
-9783 1565 -5715 0
-5153 6997 6408 0
4478 -6715 -1279 0
-6891 2257 3426 0
-1598 -3250 -4649 0
-3089 -6125 -724 0
-9231 -5629 -5985 0
3939 7951 -1150 0
3230 -8119 -6434 0
-1953 6688 -706 0
7881 4635 7042 0
421 9509 4499 0
2961 -4026 8836 0
2455 260 -321 0
4484 -6026 -3830 0
9040 8294 -3169 0
-6727 513 7169 0
9346 -6087 -1333 0
8728 8019 4766 0
-4320 -9175 -6040 0
-4247 4307 7532 0
3456 -3711 -2041 0
-5886 -1306 4710 0
-7050 -8739 7547 0
-2795 9481 -5237 0
679 6633 2140 0
6047 -9788 1248 0
4202 -9664 1955 0
-5203 3527 5073 0
8766 -4144 -541 0
5064 -2740 -2948 0
7561 -9878 8400 0
-6114 -1815 794 0
-4588 6924 -5150 0
-3919 435 847 0
6573 -5033 6712 0
-3549 -3989 -3503 0
-7291 -1874 -2261 0
-9486 -5945 -8439 0
1862 2159 5183 0
-8548 -9485 -3173 0
1964 -1959 -9172 0
2902 4217 -8905 0
7454 2651 -7969 0
8611 -3487 5609 0
1917 7130 4995 0
9405 -779 5297 0
-4808 -4264 -6942 0
-5003 -3738 -621 0
-1775 288 3135 0
6319 2904 5176 0
1438 3417 -8916 0
-8879 -8470 7869 0
-6534 -1789 -321 0
2599 -9391 1637 0
8846 -218 6591 0
-563 5356 -7261 0
4519 -6379 8786 0
-5210 8346 1695 0
-6625 -7530 11 0
6599 -9669 -6433 0
2695 5147 -8381 0
1033 -2140 -2830 0
5649 1922 -5094 0
-7975 5566 -2577 0
5299 -5844 -7167 0
-7265 -4982 5980 0
6858 8164 3965 0
4400 3795 -796 0
6456 6023 -3232 0
-8097 -1761 790 0
-411 9405 5531 0
-2332 -4010 -3479 0
2308 1545 -2771 0
5019 -5554 -9320 0
-2602 137 6165 0
8146 7330 -3473 0
872 -1456 -6908 0
8765 6974 4885 0
-5817 4645 8489 0
-4574 5111 1951 0
7393 4234 -4704 0
714 -2840 -2164 0
-2127 2214 -9903 0
3429 -3446 -5157 0
283 -7060 -2365 0
176 6007 -5546 0
-7202 4626 -3130 0
-4408 4576 457 0
-8182 -382 -2127 0
-4456 2752 -3594 0
-7835 1418 2053 0
8531 5194 1904 0
-6431 -5651 -561 0
-5819 -6494 -8522 0
-1394 9647 2374 0
9437 6885 6566 0
3040 6605 -874 0
8436 -5990 -5004 0
-2775 -5849 4621 0
4687 -7392 -7671 0
-1379 -492 -1271 0
-2061 1910 -7858 0
-4746 8101 -6443 0
-3259 957 -9683 0
-324 9209 -3982 0
4152 -7201 -3899 0
5901 -5194 -1463 0
-2810 4326 3088 0
-2636 8 -209 0
-6694 -5328 -5681 0
-2212 -1358 -6733 0
-6556 -7703 8834 0
-5555 -4826 3457 0
6333 8795 -1107 0
-3510 4800 -6529 0
-6659 -3378 2442 0
-5815 6089 7881 0
-5316 -4014 5513 0
-7813 6567 3872 0
742 3966 -6279 0
5000 -5589 1274 0
-8730 3899 4706 0
-3745 3947 -8153 0
3134 8771 8449 0
-1971 -9125 8051 0
-1261 -9202 -6417 0
726 9035 -7377 0
-2434 448 -6005 0
8417 2817 3811 0
5955 -3919 8821 0
-8489 5626 4193 0
-2895 5878 -1389 0
3069 -1106 7574 0
9463 -7523 -899 0
-7592 -48 -320 0
-1223 4647 523 0
-9654 -1811 -7642 0
-9753 8390 -7578 0
5976 3881 -6885 0
7957 2847 -3838 0
7580 -9088 9901 0
-4633 2777 3887 0
-2129 1621 4684 0
8627 3751 -4247 0
825 4297 183 0
3221 -8158 563 0
322 5736 6399 0
-4493 8790 -5510 0
-2919 -3079 -4699 0
-4727 -4021 9511 0
6598 8483 3154 0
-4379 9349 1505 0
-2299 -7002 -5884 0
456 5187 -9170 0
699 -8225 5279 0
-249 -8024 -5173 0
-2757 -3249 -374 0
9612 9590 7243 0
-5057 4701 323 0
3821 3194 -3593 0
-8466 -5989 1834 0
2261 -1950 -7246 0
3254 6492 3184 0
-101 -7421 1168 0
379 -7439 -1944 0
-2545 -6468 9948 0
-2018 9841 -3844 0
-3003 -6951 8777 0
-5166 -7991 -408 0
1137 -82 -7685 0
-6161 2818 5453 0
5437 1009 -6239 0
-6368 -8469 8409 0
-8206 -1349 2585 0
7285 5048 4137 0
-9812 7630 4814 0
-5517 3730 -2303 0
9088 -6944 -2727 0
6749 8515 -7785 0
4159 -7618 9931 0
8347 5517 -9780 0
4243 5333 1495 0
-6088 -2650 -9780 0
681 -8890 -4705 0
2545 6195 2577 0
9135 -1483 4108 0
5350 364 -1732 0
447 388 -7073 0
-7961 -8762 1714 0
7145 -8241 -1825 0
-7828 -9728 -7965 0
-4609 -4127 -3331 0
-2422 -6903 2405 0
5266 5668 5111 0
-9396 9207 -3509 0
8782 8663 -8467 0
-2653 -3968 -5490 0
-3503 3980 -4123 0
-9754 6329 85 0
-2301 -6937 8429 0
3802 -8139 -6877 0
-717 -5696 -5166 0
4715 -7020 -2015 0
9560 -2747 -1612 0
1374 -3805 3601 0
7227 2249 8857 0
512 -4555 3076 0
1133 -9182 -5727 0
3447 -4537 -1874 0
-9587 7607 -4478 0
5711 9953 1645 0
-5800 -5619 5244 0
5181 -593 5394 0
2799 2173 6333 0
5185 -5810 -4411 0
9833 -6297 -9974 0
-7147 6500 -7561 0
-2656 -8800 8802 0
-8075 -1634 118 0
1525 5317 -3909 0
-8538 -6215 -1974 0
6188 -3131 -9767 0
-9802 6691 1974 0
-737 -1891 -4776 0
-4259 -463 -3850 0
-1330 6424 -5729 0
-3109 1329 -2737 0
8994 -3734 -1294 0
-5857 5355 5649 0
5610 -7507 1082 0
-477 7668 -7393 0
-8151 2508 -7243 0
1563 -8310 -7406 0
242 8028 2729 0
-7367 774 -7263 0
-5284 4808 7640 0
426 8300 5651 0
272 -3868 6684 0
-6120 -4441 6444 0
559 2093 5711 0
-501 -9705 -8284 0
1713 -3358 9304 0
-7857 8021 6167 0
-5253 7437 -945 0
5812 3038 -7850 0
-268 -4274 -5047 0
-6674 -1750 -330 0
8133 1646 2605 0
-2640 -9534 6196 0
-3258 -2500 -2377 0
-342 7045 -6690 0
8854 51 -836 0
-1138 9925 -7605 0
-3056 -5998 8374 0
6536 -9924 2102 0
-1184 -9846 -315 0
-7608 -1236 -6869 0
1956 -2491 -2571 0
-650 -2255 5021 0
1531 1428 7684 0
8367 -8512 -1521 0
7970 -8933 -6357 0
2418 3856 -5190 0
-4296 -9774 -6182 0
2106 -4049 1409 0
-5078 -6540 -4527 0
-287 9074 -8742 0
2936 9582 3338 0
6988 9960 -4580 0
8437 -2041 9458 0
6206 6939 8570 0
-8932 -6218 -8324 0
-3490 7768 -177 0
174 4869 -2269 0
-8386 4216 -340 0
-2005 -7222 1047 0
-1722 -5197 1751 0
-7285 -9209 1879 0
-8568 6916 5325 0
8861 9489 9941 0
2669 1727 9100 0
544 -2069 2524 0
-6171 9154 -6606 0
1874 9955 -3591 0
-1940 4188 7990 0
3032 2754 9113 0
-9003 -7508 6175 0
-6663 7784 8534 0
7598 7601 577 0
-6632 -941 1350 0
-6577 2743 -278 0
-5418 2953 -3668 0
-5561 8049 -6178 0
-1275 -1599 3673 0
996 -8086 -1232 0
5773 8034 6640 0
-4283 -1781 8226 0
3345 1433 -584 0
-2860 -9677 -175 0
-5482 7108 -287 0
7796 -8343 -616 0
-8459 -9774 798 0
-6644 -6024 -4908 0
1115 6778 -7385 0
-2597 -1368 -1057 0
4692 -2128 3245 0
-3290 -9730 -1635 0
4304 307 -7098 0
3926 -7089 3065 0
3456 4009 8418 0
-4065 8599 667 0
-6704 2953 630 0
-6683 -8734 8065 0
-7906 9026 -6611 0
-8870 8412 -7098 0
2444 -4892 6781 0
6631 2955 9468 0
-9668 -9645 -2822 0
1984 -9098 -6314 0
8279 192 -7836 0
7424 5193 -7557 0
1419 -2385 6648 0
-3700 2047 -9176 0
-5530 -4047 5449 0
-2997 2241 2626 0
7871 4191 1409 0
4785 -1506 -6550 0
-9123 -4470 -7590 0
-186 -3242 3671 0
3904 -5846 3222 0
4351 464 1077 0
8337 -4904 -3267 0
2872 -3703 -2356 0
4538 -1548 -3409 0
4682 3340 2803 0
370 -419 4365 0
-7762 9603 -5226 0
6962 3620 9430 0
9541 -9884 -9977 0
-9941 -8462 -1774 0
-8596 -1331 5899 0
5519 7723 -4659 0
1922 -8306 7812 0
7027 -7581 -749 0
6826 -3720 -3467 0
-6110 -6873 2798 0
-7322 -5312 -3763 0
-1450 7712 -3034 0
-3227 2755 304 0
-3718 1104 7904 0
9506 7923 7909 0
-3596 3217 -6797 0
-7997 -3860 9787 0
6200 9000 -3682 0
8746 1705 1274 0
6057 3237 2687 0
4518 -5064 -2732 0
-1257 6975 1098 0
-9674 1676 355 0
-6407 9428 1627 0
-6062 9204 -4212 0
6926 -1205 -4542 0
-2747 -5341 2234 0
3829 2114 4975 0
1557 3010 9859 0
6104 9770 222 0
-1956 -2235 -273 0
3284 1146 -7119 0
-2556 2868 -8898 0
-2455 -5964 1936 0
-1172 3821 8662 0
-1181 1345 2752 0
-4177 -9176 6969 0
-2120 4534 -8106 0
7937 -1763 -2905 0
7828 -616 -8393 0
-7414 9664 -8116 0
7678 2913 8623 0
2848 -6002 9583 0
-6801 -3309 -8236 0
-5744 -2577 587 0
-6105 -2788 -8892 0
4878 -3185 5689 0
-6660 5797 9036 0
6777 -8675 2603 0
-8565 -9847 -7558 0
468 -7664 -6891 0
2351 -5941 -4238 0
9045 7220 -8228 0
5740 3801 2209 0
-5270 3312 1302 0
2540 3149 338 0
-4376 -1424 -4028 0
-6051 4299 70 0
-501 8464 -2097 0
-1716 -6742 -1230 0
8732 -747 2849 0
-3471 -8750 -7787 0
-4927 -2312 5839 0
-2863 -7941 2483 0
5876 -8894 9909 0
6849 -7635 4739 0
9868 -3920 -7463 0
5937 -2458 8081 0
4515 1205 2583 0
1370 -6713 -4852 0
-4606 5937 8799 0
-8000 -4818 2153 0
3184 -4760 6067 0
8084 -653 -7405 0
8578 4204 8224 0
-3528 -7438 7712 0
4939 9057 -1047 0
-6453 200 -7736 0
4340 7259 7727 0
-6489 848 8236 0
-4942 -3606 1200 0
-9149 -4372 -1549 0
987 -3833 8273 0
3260 -7333 6923 0
1947 -9791 -5399 0
776 -6079 2711 0
-1778 910 5271 0
-688 2641 -2096 0
-6822 -2568 6618 0
-1926 -1720 -5976 0
6741 -467 7825 0
-1756 281 7762 0
-9656 3950 -5260 0
-3372 7236 664 0
1902 2550 -5028 0
2711 9970 -7878 0
-8410 -2459 -8978 0
-2783 -7009 5958 0
-3441 3902 -8007 0
-215 -6185 3932 0
-5563 3149 -9413 0
-508 4314 -4382 0
7076 9089 -7426 0
5321 9626 3537 0
1864 7637 -3736 0
1967 -9359 2311 0
9921 -7035 -6880 0
4184 -2744 -8618 0
-7885 8496 -6941 0
441 7875 -8804 0
-2703 2214 9471 0
-3746 1085 8010 0
6281 -6060 -7817 0
1327 -3432 1223 0
505 -5448 -2562 0
3952 -329 -6706 0
-7058 8980 2758 0
-6398 -1006 -9108 0
-1745 8259 5337 0
-2185 -9368 6940 0
-7650 4516 8194 0
4366 6090 -2348 0
-8665 -9599 1863 0
4693 -6719 5814 0
-3291 -6177 -9704 0
-3010 -7802 8251 0
4960 9809 9459 0
-8456 2042 -2661 0
-7437 -1203 421 0
-5985 9563 9882 0
-4456 41 718 0
6435 5860 -5091 0
-7084 7454 8734 0
3470 -8704 -4750 0
-5481 -8683 2433 0
8586 -5244 -227 0
1383 5633 -8310 0
2936 -7815 4078 0
-7315 -9355 856 0
-3745 -9910 -4310 0
-5172 3951 -6749 0
9039 -3684 4795 0
5327 -6811 5859 0
4468 6668 5803 0
-3289 5972 -2588 0
8553 7457 6419 0
137 5559 1161 0
6437 -1043 -4248 0
883 1451 -5275 0
2595 1228 -7079 0
1792 -1350 -2358 0
-5168 2163 7710 0
-2393 -9905 5220 0
1198 5567 6484 0
-8176 -9688 9618 0
-1123 -2657 9363 0
-5363 5613 374 0
3883 392 -9729 0
905 9203 -5238 0
-3073 -1555 1632 0
8773 -429 5405 0
-6270 9944 1966 0
-5690 -5435 -4222 0
-8090 4051 2363 0
3114 7974 7466 0
-1045 675 1852 0
-2017 -3459 -9903 0
9226 9186 -3826 0
-5933 -3319 -2727 0
-4542 4772 -5812 0
6349 3565 9985 0
588 625 -8828 0
-2676 4251 8453 0
-6626 -6556 -1463 0
-2742 9212 -6476 0
-7440 2350 4400 0
1565 -3769 775 0
-565 1284 3256 0
1908 3540 -5856 0
-3524 -245 1913 0
-8322 534 -3664 0
-5043 1763 8934 0
1750 4148 -3366 0
7967 265 6122 0
-4094 7118 8158 0
7963 8982 2796 0
7419 6195 -296 0
-9384 -9476 72 0
-3245 -6395 -6078 0
2706 -422 -8821 0
1324 4845 -9120 0
8087 -9078 -6489 0
5753 -9034 3897 0
-3294 8475 -5310 0
-8297 2277 -5845 0
5732 -3446 -4676 0
2985 1881 2474 0
2836 -807 7288 0
-4420 2287 -7722 0
4944 8479 8150 0
-1978 9013 -8094 0
-6634 1567 5341 0
3622 7086 -9156 0
6150 8108 4293 0
-606 8094 400 0
5600 -8715 3289 0
4557 -4837 -4361 0
8449 -711 -2351 0
-478 -4218 4799 0
822 2412 -939 0
-5341 429 -2623 0
-4606 -6961 -7832 0
8141 -9383 -462 0
7866 4682 -7802 0
-1754 7824 -3793 0
4518 -9693 -5511 0
189 5356 5424 0
-9175 3708 3035 0
6471 3201 788 0
8566 -8172 -3624 0
7109 9289 -7827 0
3095 -475 -5892 0
-8029 -8880 2134 0
3709 -7229 -4880 0
-494 591 8909 0
2775 3880 2493 0
6122 -1839 5129 0
7578 1933 3931 0
-8650 2492 -6394 0
-5889 -3639 6316 0
-6346 8148 -5304 0
8188 8269 1006 0
-3155 9494 -1772 0
8848 1275 3069 0
9206 -2210 -6127 0
-7629 3682 8652 0
8982 15 -9489 0
4604 -6561 -6619 0
5713 -8808 4701 0
9798 8815 -9137 0
-7535 -5839 1276 0
7162 -7303 909 0
149 -1769 2429 0
78 9970 7156 0
2768 7079 -228 0
-372 -2234 -2675 0
7569 5437 -57 0
-6419 -2845 -5796 0
9820 1452 -2956 0
-4690 -4128 -6068 0
-1220 -143 -4978 0
-9979 -7936 -537 0
-6747 304 -8077 0
-6971 1276 2375 0
4280 -1724 8192 0
7198 -8571 771 0
-7757 -7938 6688 0
3014 935 -2043 0
6134 5236 5973 0
-6889 -6078 -1041 0
9902 -5076 -6397 0
-292 -2434 8624 0
7657 -1349 -3889 0
5149 8217 -567 0
2706 -8125 9492 0
8434 -3572 -1971 0
-7899 -7384 -6236 0
-2446 6612 645 0
3208 -2505 3057 0
1605 5659 -4134 0
-3671 -888 -7486 0
993 -1544 962 0
-3698 6688 271 0
191 6911 1339 0
-957 -4196 345 0
-1836 6537 -4373 0
630 -9770 -3050 0
-9117 817 -3787 0
9227 8665 7124 0
1514 3620 1846 0
7043 -3725 3532 0
-5782 9749 9579 0
9331 2376 -605 0
5353 358 -1473 0
-9955 9189 -7202 0
4080 -7924 -4720 0
-6709 6773 -1000 0
-9568 -570 -4442 0
8839 -4270 -1775 0
-8594 1985 2446 0
3738 -9010 2351 0
-990 6880 1251 0
-1826 -8360 3736 0
-9597 1857 9762 0
-3376 1904 7996 0
-5585 -9969 6963 0
-6937 8215 424 0
4985 3593 8360 0
3189 -3614 -2378 0
-9173 -4167 655 0
1812 4843 -5124 0
-7613 5266 4275 0
9806 2906 -4846 0
-8449 -3408 -8005 0
-5221 -9236 4533 0
-353 6947 -7005 0
3135 -8638 -1115 0
-7291 -4467 9336 0
-2010 9468 -8461 0
-9303 3200 -1933 0
148 -1055 509 0
9632 622 8360 0
-8986 -4035 832 0
-4155 -8215 -4171 0
-8999 -9108 6184 0
1289 7612 6729 0
6444 -1790 -2827 0
-2010 4332 4986 0
1 5660 -6714 0
1653 -1170 4297 0
6356 -7409 -6659 0
-1302 -8915 9869 0
-5290 2994 2393 0
6217 -1337 4028 0
-3264 -5722 -9785 0
-7759 -6031 9347 0
426 7606 7005 0
-6701 -1689 -6767 0
-7678 -6404 -5371 0
9541 -1142 3022 0
-8776 -6374 -9070 0
-2618 9411 -4166 0
3890 -2597 5421 0
-7281 3372 -7357 0
5581 8452 610 0
3625 4858 8774 0
4318 9172 -2239 0
4568 8477 -3556 0
-9922 -4911 -9759 0
-1593 -6916 -4871 0
-3421 -8208 -1500 0
-6645 9699 -4464 0
6520 8745 -3174 0
5723 3407 -78 0
-5854 -4787 8761 0
-8336 -766 4992 0
-3185 519 7945 0
-8171 -4603 1108 0
-4637 8096 -5367 0
8081 -5739 5947 0
9462 7383 -3751 0
-9742 -6562 659 0
-720 1682 7997 0
-9895 -3363 -1092 0
3794 -7430 -6884 0
5782 -2656 2380 0
-4748 -2598 -1760 0
-9969 8355 6974 0
4662 -7227 -6336 0
5141 5410 -9297 0
8859 -218 4586 0
4340 3831 6760 0
-5265 -867 4529 0
-8975 -781 -2113 0
-3074 -6531 5394 0
-1282 8671 5410 0
-3391 -3624 2987 0
3891 5770 -7926 0
7843 9073 9398 0
-2427 -8604 7861 0
6210 -522 -5481 0
-355 -3220 725 0
-1108 4204 1154 0
-3219 5652 189 0
-8888 162 8334 0
-5534 1404 -4702 0
-2835 9005 -5393 0
-6983 2710 -8245 0
6769 -5005 -1349 0
8451 -7805 3550 0
4520 -4334 4906 0
-9245 3929 -9025 0
7603 -1795 -2075 0
-1575 -148 -1543 0
-9566 -9843 -5354 0
8006 -4733 9917 0
-1923 -2218 4864 0
381 -4546 -6358 0
4949 704 -8292 0
-2556 3270 8233 0
-6871 -4009 4234 0
-1461 9585 8955 0
3558 -6777 2592 0
6108 -1053 -718 0
-8725 9806 -3492 0
-3538 1327 -8134 0
5052 -5018 7947 0
-1348 -9086 2220 0
-1996 -1921 7093 0
3508 9332 -1952 0
-8944 -7403 -4737 0
-7164 -2499 -6700 0
1810 4672 7481 0
-2862 9809 -3572 0
-2233 -6202 -1812 0
-5554 -809 102 0
28 -4465 -7445 0
-9756 2709 5167 0
7058 2825 2654 0
8664 -4672 -4344 0
1800 9176 -4745 0
-7806 -6437 3942 0
-9201 -8024 -8758 0
6373 3091 -9429 0
1474 -8988 -9079 0
-2705 116 4722 0
6376 -4599 -4613 0
-8412 -9595 7243 0
-2065 5782 -9660 0
2178 783 -2573 0
-6875 6576 -8025 0
8962 3379 -3791 0
-1109 419 8303 0
454 -5854 7209 0
-4987 449 -2569 0
657 -9776 6242 0
1957 -1549 5545 0
-7123 660 -7888 0
-380 2365 -7570 0
-8201 -1179 -7547 0
3390 6920 -680 0
-5774 464 -4350 0
1370 7447 -9152 0
-8375 -89 6089 0
6212 -5883 3499 0
2981 4663 -6014 0
-2153 9999 -9786 0
990 8141 -2312 0
-8952 6129 3257 0
1374 -33 -7490 0
-897 -398 5978 0
-5065 -4766 6100 0
-9496 -3599 -1856 0
-9097 -556 7244 0
6101 -7360 -1377 0
9117 -6525 -8301 0
-6171 -8089 -6987 0
-7979 -7643 2530 0
-3714 -5313 9411 0
9660 -8674 -5931 0
7541 4207 4961 0
-692 8921 9928 0
8708 1149 9757 0
-7765 -465 6863 0
3966 7137 -9490 0
3134 5603 3965 0
8257 -967 -7800 0
6892 621 -6822 0
-5069 9093 1933 0
-4104 -6313 -5655 0
7320 7816 5370 0
-3137 -9186 4592 0
-3466 -814 -7621 0
-9756 8901 2436 0
-1938 -8039 -3258 0
-969 -3047 6828 0
-3233 -5953 -5067 0
-7468 5390 6240 0
8723 -4353 -660 0
-486 6640 7586 0
9070 -7423 4440 0
7627 -535 -6943 0
-2721 9687 8166 0
-8840 7663 4730 0
3946 899 8953 0
646 -9843 -3564 0
-7344 4838 -6629 0
6622 -3705 -291 0
-865 -1140 -8704 0
-1385 -2619 -2434 0
-1533 7962 -675 0
-6956 2684 9996 0
-4428 545 -6056 0
7499 2410 2725 0
6737 9820 -3676 0
7145 -5648 -5351 0
-918 -9037 -2813 0
-7452 -6971 1232 0
8244 8443 -8137 0
9302 -1964 9188 0
-6382 -2926 -3939 0
4257 3137 -4750 0
-9615 -6243 -868 0
3819 -9034 8050 0
-775 8246 -6253 0
-2312 8555 -3676 0
2008 -7389 -1087 0
3268 3792 1388 0
3304 -171 1032 0
5649 -9227 -3496 0
-8639 1732 -3092 0
-9831 3853 8723 0
5564 -7295 -1466 0
3955 -7594 -5713 0
9678 9560 5144 0
9031 5906 2176 0
9785 1054 -6615 0
8578 -4272 5418 0
-6973 5491 3435 0
-5404 -7339 8827 0
3643 963 3812 0
-8697 7579 -7861 0
9878 -3152 1996 0
3002 9146 4607 0
-360 -9132 -6613 0
-5919 -8943 4023 0
-1791 -294 7592 0
9106 3682 -1939 0
-3338 8132 -9780 0
5351 5891 8108 0
-3766 -6836 2220 0
-7559 5925 -4064 0
-1245 5491 9673 0
2291 164 -4940 0
-4168 -9066 -4917 0
-6354 1419 -9846 0
5831 -4199 -5143 0
-9910 -4975 -1659 0
539 -864 -5644 0
7225 -7986 3037 0
-1258 -2174 6268 0
-4144 3919 -1474 0
4453 1669 -439 0
-1591 -7789 2270 0
9036 2064 2967 0
-5950 -6592 8844 0
9122 -9136 -9250 0
4341 3186 2051 0
1734 -5397 9068 0
-8869 5475 4277 0
5729 -6872 -7560 0
7519 3231 3408 0
-3682 7673 5835 0
9128 5009 675 0
5423 -7007 -4302 0
4885 -2568 -7370 0
-6977 543 -3744 0
5463 -6380 -4336 0
6644 -1598 -7016 0
7992 64 -808 0
9217 -3545 1243 0
-2878 -1375 -7156 0
2398 -7071 1660 0
4917 5580 -909 0
5263 7371 9118 0
3513 -1520 3314 0
154 5108 -6168 0
3826 6810 3781 0
5655 -1887 503 0
-8262 -1850 5113 0
-8494 -5652 -3000 0
-3841 -4825 4421 0
-7746 933 6218 0
105 8327 -9437 0
-4298 2176 -9808 0
-3393 8247 216 0
4026 -9714 -6999 0
8785 3769 -2141 0
-7359 2281 -7234 0
2274 -5494 5822 0
1619 -115 -7395 0
1665 -1820 -9609 0
-8281 5092 3319 0
-7238 6360 3001 0
8659 -2071 8663 0
-5249 6567 4584 0
9387 4415 -8595 0
3002 -2052 -1384 0
7104 2973 7484 0
-3893 -2393 4595 0
-401 7800 1485 0
9240 9327 -1211 0
9569 1621 9872 0
-4695 -3345 2960 0
9398 -2566 -3388 0
6688 -538 8483 0
-8964 9226 -1289 0
-4217 -211 2052 0
4569 3304 581 0
4713 -9348 -326 0
6440 2534 -3904 0
-1262 -7894 3176 0
-6793 7136 -6986 0
6348 9552 7728 0
8747 1031 5419 0
-3922 -5351 -3025 0
-9548 -253 -5001 0
8593 -4566 8862 0
8065 8566 -6752 0
-7120 -2019 -8965 0
-8323 556 -8436 0
6248 4215 6037 0
4122 9560 -5318 0
-2419 -4754 -6722 0
-644 -4953 1813 0
8125 -5045 2267 0
9634 -3847 1818 0
-6494 4007 -5737 0
-9780 8228 3435 0
-3648 6127 -3449 0
-2995 -6356 -8772 0
-5926 -8483 6373 0
7929 -5941 1080 0
2852 -3497 8461 0
-8598 -519 -4076 0
7937 -7715 -4036 0
-8372 1474 -146 0
1350 -7494 -4111 0
4824 3137 302 0
-302 -2378 -1607 0
-7112 -9070 -6631 0
4545 -3849 1224 0
-7009 -7383 -6668 0
5567 -6306 5984 0
3326 5338 -1372 0
5586 -9841 4148 0
-1087 1093 -4126 0
8366 -2669 -8711 0
-1377 5977 1838 0
-777 8334 1609 0
-1218 -8111 4840 0
7977 -6227 9298 0
7446 -3799 9141 0
5228 4356 -3847 0
1516 -9380 -2941 0
-5106 226 7822 0
8120 -2729 1243 0
1402 -7952 -6778 0
1107 2100 -8848 0
3362 -7433 -6384 0
844 -4745 9795 0
3525 1894 3562 0
5648 -7063 -1608 0
76 8006 4164 0
9022 -7477 -5769 0
3626 7458 7087 0
1829 9363 -3608 0
-3457 5844 4589 0
4116 4201 3496 0
4706 -6536 5009 0
2733 -4624 1447 0
7030 1504 -9779 0
-5898 9217 4318 0
1941 -6424 1648 0
-7927 9701 8297 0
5370 -3178 -3405 0
5505 3823 5223 0
9329 -5571 181 0
4743 -925 4284 0
-4596 -234 -1158 0
-3554 -1615 1906 0
6932 -6360 6636 0
4389 5712 3402 0
2654 -7481 -2965 0
-2300 -8359 -712 0
-1819 3993 4509 0
8441 -7262 6835 0
-1296 9984 -7236 0
-7362 6828 -9477 0
-5962 5790 6440 0
492 3193 -6391 0
9044 -1374 -5163 0
1989 -5974 4094 0
7010 -5480 5058 0
-1013 -9404 5599 0
-1948 1207 -8169 0
466 -1842 6563 0
-7314 -8595 5461 0
5614 -1789 -6580 0
-9811 3513 8048 0
9727 -5192 8427 0
5734 1551 718 0
6147 -8845 1144 0
-7079 5867 -3939 0
-9181 -4318 4624 0
-5693 3704 -8681 0
6521 5249 -1684 0
5326 -5156 -7949 0
-3430 7187 5711 0
-5308 -9927 -3768 0
-6222 -2782 -8345 0
-5218 4332 4289 0
2997 4640 -9861 0
9751 5646 -3502 0
-6201 3265 -3381 0
2753 -868 4143 0
-1320 -2593 1941 0
5821 3784 -6044 0
6325 -7249 -367 0
-2737 3911 8872 0
-210 3640 4505 0
2332 -801 -6077 0
5673 -7479 -3397 0
-7334 892 -4661 0
-9177 -3041 -7357 0
6998 6233 -8208 0
4935 -7619 1003 0
2676 9808 3135 0
-6312 352 2804 0
-347 6967 -7856 0
-3232 5474 -5255 0
5120 8874 7950 0
-6801 -6740 -1735 0
9795 -9658 -8448 0
9672 -1791 -9686 0
-4133 5407 -8403 0
7465 -1892 -7890 0
8276 -9791 -4713 0
-5105 -4886 -7204 0
9704 1103 -3538 0
-1191 -2855 -9612 0
-4889 9710 -5302 0
-2904 -7826 -7747 0
-3832 1765 -6655 0
-2510 3070 -8921 0
-3698 5538 -3217 0
-4736 -2611 -2837 0
-961 7692 -80 0
-6041 -278 -1904 0
8356 -6346 -779 0
-4986 -1887 5993 0
-4368 1414 5469 0
-9947 1502 3041 0
8915 -9664 118 0
-8935 -5890 -522 0
-7611 8076 -2128 0
-2735 3150 -2228 0
-9690 403 -5281 0
7347 -5944 7657 0
2742 -4621 -5573 0
9524 2136 -5161 0
-9548 -4052 -5482 0
-8959 -5815 6826 0
2963 9248 9215 0
-1007 9079 -7780 0
-455 -3414 4040 0
-3208 7843 -9599 0
-4745 -3191 -8879 0
-4874 8074 -318 0
9087 1292 6854 0
-2700 8123 956 0
3676 7790 -7815 0
-3935 -3055 -7175 0
-8755 2882 -2462 0
-10000 3346 6290 0
4594 -8104 4106 0
-1830 5538 -2658 0
-7664 7670 788 0
-2020 -6757 8233 0
-9581 1073 -9556 0
-5409 -8015 -8056 0
3769 7260 2431 0
8455 4151 9130 0
4219 -8530 4702 0
-3902 8197 3532 0
-9743 -7386 -5578 0
-1855 4714 9459 0
-2938 -5224 -8455 0
6438 -9916 -8437 0
-4403 -5593 -2277 0
5975 -6410 7673 0
982 -3596 148 0
7457 -8275 -2229 0
-953 4014 8382 0
-2604 -3248 -67 0
3165 6238 -7873 0
-3362 -1086 7445 0
-5826 -3592 -7925 0
1260 3301 277 0
3322 -3974 -2457 0
1857 1032 9332 0
7552 -9420 -5587 0
764 -8510 -6919 0
4263 2314 6152 0
1383 102 8084 0
6722 -2352 305 0
3477 -6401 2339 0
-7664 -7399 -805 0
-1649 -8810 -385 0
-4678 2726 413 0
2488 5917 1187 0
1043 -8988 4563 0
-8517 5493 5517 0
-8335 -8062 1693 0
-5654 6246 -8174 0
5008 4790 -138 0
5126 819 -9216 0
-895 1318 -425 0
-3101 -9507 6089 0
4768 2687 1982 0
-5684 -5600 -2266 0
8461 4361 7544 0
3531 -9436 -4317 0
-2403 4628 5258 0
8376 2577 3776 0
-4924 1430 -656 0
-853 -8804 3304 0
-2220 -3938 1852 0
-4112 -3918 2829 0
7875 1333 927 0
5747 8991 3510 0
-7777 4140 -3943 0
-3189 640 9170 0
7 -146 -2705 0
6358 -7925 488 0
-9080 3061 -3250 0
4195 7332 -7292 0
-9287 -9813 5443 0
2225 -1194 -9157 0
-4142 746 9828 0
2771 -9602 4122 0
2315 -3111 7533 0
8308 -4475 8638 0
-9634 9654 -6247 0
-6074 -1195 2310 0
-9120 1328 -6977 0
-7354 -8760 -1388 0
-8351 -743 -2547 0
4368 8459 804 0
-4389 -9245 -358 0
-518 -7637 6445 0
5132 8670 2047 0
-2698 -5028 -6664 0
1824 -8175 -9047 0
2998 -4083 -2004 0
-2015 -3140 1978 0
-6812 6368 8153 0
7864 -9665 8869 0
-9112 -4265 7197 0
-1682 3516 -2902 0
7224 -4980 2741 0
9478 -7663 -7762 0
-1846 -8517 -1986 0
-5882 6861 5416 0
-2228 5628 -2759 0
-1340 -8301 -1872 0
6848 -6024 9718 0
-7454 4285 493 0
6056 -7989 1674 0
-8060 -8515 -7453 0
9807 4961 -9221 0
-4304 9549 3446 0
-1075 -3964 7448 0
-5099 9590 4416 0
512 -2402 5785 0
-583 -1147 -7453 0
-2666 6464 -4255 0
9212 -1310 2361 0
-1296 6790 8324 0
7054 -3599 5204 0
-8260 -7248 -877 0
-9955 -5740 2008 0
3339 -5153 1188 0
1365 -7857 -2511 0
5277 3982 -6111 0
8665 7768 6590 0
3822 2398 4570 0
-7343 -401 -610 0
-8327 7033 -6705 0
-7398 2270 -8761 0
7972 -6233 -1223 0
7404 3459 9825 0
9932 7498 7109 0
5777 -952 1332 0
-8566 8608 3614 0
8141 -8462 118 0
-9792 -5991 8052 0
-2228 -7278 7899 0
1007 8205 -3979 0
9515 405 5747 0
-870 4075 8445 0
-7576 -9558 9917 0
3233 5679 7739 0
-6270 -696 -7069 0
-424 -5637 4609 0
-735 3817 7023 0
4072 6238 2472 0
-3326 5243 5355 0
7873 6456 -2847 0
-3175 8145 8784 0
-2835 9525 -949 0
7156 5496 -5252 0
9282 2082 -2606 0
-2188 3449 -9071 0
526 -7514 6783 0
7803 -2283 3815 0
-1069 -4210 -8414 0
7562 9921 5530 0
-7900 4693 -2095 0
-4017 8687 5807 0
825 6826 -5418 0
9049 -2450 6375 0
5075 6920 -1745 0
6792 3361 400 0
-3249 7077 -9424 0
-2854 5584 -5043 0
2356 7488 -2965 0
7875 -3103 -7109 0
7950 -6857 7231 0
7451 -7612 1703 0
-1777 -9684 9383 0
860 -8403 607 0
-1941 3200 -4223 0
-6836 6971 9134 0
-1322 2330 -7448 0
-5301 -2368 3497 0
-5969 -1831 -7223 0
-9450 -5411 -5413 0
-9735 -1003 -4717 0
-9875 4958 -32 0
5600 3456 9676 0
-6104 2089 7497 0
5024 9951 -7700 0
-2854 -351 -9687 0
-7816 624 -7286 0
4391 -7851 -400 0
3220 7486 -7344 0
4892 -1602 4301 0
7839 5092 3170 0
7837 226 9233 0
-8337 5171 -5450 0
-8485 -5065 7153 0
3967 -6591 7307 0
-4515 -6019 2694 0
-4440 1157 6588 0
-5716 8778 5882 0
3785 -3209 -847 0
-5642 1302 5555 0
7829 -3816 -7391 0
761 1516 -9942 0
-3882 4928 3988 0
-7642 -1864 1198 0
-1286 8336 -6290 0
426 -5833 4189 0
2163 7736 -5559 0
9207 -5828 -5877 0
-1722 6638 -6413 0
-1336 -4679 6166 0
-8991 8093 6176 0
2165 8024 -2000 0
-3275 -6786 7079 0
-5365 1632 2092 0
-6700 -3626 -7200 0
9967 9298 -4288 0
-6912 7155 1063 0
-8915 4084 -198 0
-9563 -1373 -3304 0
3018 -8980 1990 0
-1214 -4758 -4399 0
2067 9226 -6189 0
8497 -2202 9523 0
-1900 -7750 9644 0
1402 847 6083 0
-8900 -2042 -3438 0
6555 6173 9714 0
-5899 -5631 8961 0
-7240 -291 -329 0
-7969 -1459 9741 0
3189 -471 -4327 0
1561 -4414 -9661 0
-1428 3830 -672 0
2764 2756 -8030 0
5547 -5272 -5205 0
1017 -6899 -8783 0
8574 8195 -9106 0
5975 273 -7732 0
-7419 9148 3840 0
3892 -6924 -6694 0
-1671 -6092 -6021 0
9704 5362 5972 0
-8194 9520 -362 0
7714 7769 -9737 0
-5970 8740 -7202 0
-6781 -9856 -1942 0
9976 -169 -9280 0
8124 1113 -6521 0
1584 3810 -5483 0
-5013 -4221 3921 0
4139 -488 2764 0
-3102 -9064 -7141 0
-4355 -8978 9660 0
-6507 -710 -7090 0
390 -6192 -3213 0
6147 -3854 1793 0
-8996 -9887 -2653 0
1421 -1778 -5967 0
4843 -3959 -9437 0
-9175 -1453 -5253 0
-4586 -7801 -88 0
-6220 2600 -8638 0
7427 7917 -6329 0
-5391 -8518 3631 0
-9468 1056 -5219 0
3322 6500 -115 0
-7535 -997 5871 0
-9476 -5110 -1063 0
-1064 -9366 -1190 0
-9560 3345 -9047 0
1242 -319 9321 0
8043 -1202 1683 0
-222 -7109 -6755 0
1464 9757 -7380 0
92 -7543 518 0
-1052 5410 -1462 0
2755 8649 -4114 0
8235 -4629 -6578 0
-4321 -7716 5291 0
3448 -9931 6297 0
-5755 4423 9510 0
-2126 9717 7442 0
-1123 3554 -2412 0
3460 -46 6572 0
8722 5408 4416 0
-460 4713 3217 0
-6880 -5458 -4305 0
3749 4744 -700 0
6826 634 3777 0
1619 8634 9041 0
2237 -9920 6849 0
-8702 350 8027 0
-798 -9965 -4614 0
6713 8198 -4928 0
9031 7066 1522 0
6617 7643 -4940 0
7693 -5590 4989 0
-1779 -6316 -645 0
101 -30 -5486 0
-4947 -2320 6907 0
-5773 4532 -3319 0
7891 -3760 2853 0
-2871 -4323 -5954 0
9473 2734 -6945 0
505 -8997 -9888 0
8062 -4894 3075 0
-4268 1289 -9720 0
-5220 -85 -4920 0
3625 -9753 -3328 0
-1692 5411 -2957 0
-4008 -4034 -8734 0
-7662 3431 -5612 0
3307 3865 -9716 0
5952 7092 8208 0
8872 -8804 -7174 0
8310 -768 -3182 0
3684 7526 2182 0
7578 9881 984 0
-6655 6974 38 0
9393 4857 -1352 0
-4601 -7430 7076 0
-3068 -3131 3835 0
-5837 860 125 0
-6824 6666 -2590 0
1929 -4188 4058 0
3187 -5025 2662 0
4485 -4284 6014 0
1075 4196 -1843 0
1451 -3032 -3902 0
9028 -7899 -598 0
-785 -3657 -2023 0
-833 4316 5905 0
-8198 -4833 2643 0
9631 7884 -8994 0
-7232 513 -5324 0
-5188 1265 933 0
5787 849 6992 0
-2251 -5170 66 0
-9993 -5523 -3182 0
5878 268 3159 0
1468 9540 5884 0
6569 -4142 323 0
1191 -8316 571 0
8719 32 -4159 0
-4097 -4228 5717 0
-3844 7100 9672 0
4483 -5425 8734 0
9761 -5333 -7668 0
8790 -1644 6663 0
5899 69 9654 0
-434 -5182 -7348 0
-4858 -2479 2458 0
3359 -4714 -6677 0
4156 -6809 8847 0
3118 -1643 2717 0
4495 -3468 4764 0
-3046 -2688 2788 0
-8174 2909 -4140 0
5043 1374 91 0
-7997 -1914 -8099 0
-3603 6141 4086 0
7100 4768 8191 0
-1615 141 -98 0
4482 5230 -5127 0
-1465 -9140 5148 0
384 -8498 1158 0
-4827 -6549 -3576 0
9368 -7556 -6497 0
-7497 -7999 8872 0
2854 -5656 1354 0
3349 -8291 -8385 0
-1004 2272 9121 0
-3151 -7890 3969 0
7444 -7191 -5270 0
1188 -3476 -5070 0
400 -1711 -7588 0
8155 -2287 -417 0
6488 -4502 -4547 0
6605 -6420 -7595 0
-6001 -2510 -6594 0
8189 1925 -7384 0
6964 -6533 -3541 0
2080 5196 -2687 0
-7277 1623 9842 0
-4060 3694 5074 0
-4456 3145 -5392 0
7846 8989 932 0
3979 6716 8157 0
-7484 6671 -6095 0
-3111 -9350 6833 0
6893 -3781 7130 0
8887 1940 1412 0
-8679 -7091 -9450 0
4924 -6076 -1465 0
3521 5520 -3212 0
2086 7586 1140 0
-759 -668 583 0
9505 -3833 -9366 0
7295 -248 -4543 0
-602 -1045 -6603 0
-3791 5490 9919 0
-8657 -4936 -5426 0
-4533 4825 -9848 0
2055 7797 -4461 0
4620 8097 4960 0
-1696 -42 7242 0
-1112 -9216 7621 0
9099 -9490 7961 0
-3687 -939 1733 0
-9381 3607 -6080 0
405 -4700 -1297 0
2519 -3841 1452 0
-4679 -773 8178 0
1071 8342 3646 0
-9631 6173 -2918 0
-4432 8618 3248 0
-1792 4153 4698 0
6568 -4778 8889 0
3807 8306 -4386 0
-3584 -3149 -1552 0
2184 8939 1279 0
3257 9722 636 0
-9580 -2712 -5261 0
-7908 -7084 3445 0
-2789 186 -7339 0
-2238 5154 -2590 0
4516 -6815 -3518 0
1567 5179 -4508 0
5876 -7733 -9162 0
-5432 4003 -370 0
-5390 -948 525 0
7265 9457 -3265 0
7934 308 3652 0
-1425 -9626 8722 0
4226 -6538 8996 0
2533 5108 150 0
-68 -7668 -3008 0
-6067 475 -4101 0
-3281 9849 -3716 0
9721 -5760 575 0
-5967 -3520 -9770 0
-8250 7146 7417 0
1735 -6276 7019 0
4785 -4169 -198 0
-9098 95 -4064 0
-1542 -8270 963 0
-2625 -8481 -5996 0
4361 5671 -1840 0
3507 -2601 6822 0
-5035 8083 -1446 0
-7413 3398 640 0
-2319 2879 -7476 0
-3902 -5357 -328 0
-4915 8361 1387 0
6190 5973 -2586 0
-4507 504 -1996 0
-2352 4596 6528 0
416 472 9686 0
1293 -4920 2506 0
-8479 5147 3988 0
-5542 892 4198 0
8510 9064 2322 0
3127 9887 4656 0
-6466 -3019 -8379 0
2158 5097 7142 0
2667 -4583 1667 0
8343 -7428 -4706 0
5024 7596 4663 0
-5201 -1676 4199 0
-9549 6088 5893 0
3933 2852 8196 0
-5863 3793 731 0
-3838 1269 3511 0
-9560 -4624 2549 0
9696 -1547 2539 0
8901 -9882 -8175 0
4370 -9993 -1784 0
1427 8181 -1073 0
7415 -2687 5202 0
6026 -9183 -1019 0
2299 4755 -4839 0
-3516 5211 8185 0
3439 3051 3054 0
8334 -4928 -7273 0
4951 1430 -384 0
-4157 -1496 3472 0
7591 5316 6287 0
9149 -8758 4366 0
-5767 -3472 -655 0
-4184 -1012 -578 0
-3480 4624 2949 0
9432 -7025 -2654 0
-9486 5861 -8566 0
4898 -3085 -5751 0
-3315 4015 -5763 0
8428 -1341 2698 0
-8411 -1456 -6271 0
3221 -9779 -4785 0
5572 8003 -2132 0
-4998 -6063 9785 0
-1739 -9812 2583 0
8272 -38 7354 0
-605 -6123 -9825 0
8434 4358 -8578 0
8506 9470 -8893 0
-1252 -7404 4031 0
-5569 7015 -6853 0
3740 671 -2929 0
-5743 2542 8385 0
-8676 -86 -3008 0
644 85 7785 0
6492 9352 -9550 0
-5506 4903 6729 0
-1121 6171 5727 0
7658 630 -4523 0
-9622 6967 394 0
-9448 -6982 5945 0
-9547 7181 592 0
-1807 -3183 5627 0
-810 5048 -4590 0
-390 6906 1386 0
-2447 -7320 -3201 0
3312 6279 4121 0
1018 -6917 -6772 0
-2585 2717 -5266 0
-849 -6688 -8915 0
7826 9357 9766 0
-399 210 3716 0
-7149 -2685 -230 0
2985 9017 8996 0
-6573 7252 -5721 0
-5253 9485 -9751 0
-999 6673 7676 0
-613 5127 -6316 0
4117 -798 -4942 0
-8526 3851 5293 0
8137 2836 4791 0
2783 -9120 3597 0
-287 3543 -276 0
8357 1249 1345 0
4208 -5003 2383 0
-9976 -9823 -4092 0
6330 -4654 1138 0
2083 1062 5674 0
82 558 7170 0
-1238 8254 3825 0
-8901 -7062 4713 0
6565 8169 -3242 0
8169 -6902 9998 0
-1691 -1613 -5419 0
-6747 -143 -2411 0
7345 -1659 7301 0
799 5187 1097 0
-4064 3896 5301 0
-8797 -5842 947 0
-2644 6699 7257 0
2390 -7989 -5520 0
-9988 -9809 9367 0
7872 6130 8903 0
-1103 -4622 -4933 0
-375 -9502 -9252 0
-671 4392 -5368 0
4077 6392 9557 0
-1496 2318 -9890 0
9899 -2239 7992 0
-7738 2176 -2540 0
-8457 -9800 7156 0
-224 -5264 6017 0
9927 -5787 -9727 0
417 -26 5815 0
5393 -4601 -7964 0
-6199 4049 2104 0
1936 -7171 956 0
8101 3248 -8719 0
1146 -1656 6672 0
852 4395 -1711 0
9205 -7404 -4930 0
-2406 -6573 1490 0
6559 -7959 -2001 0
-8517 -3372 2806 0
2709 -2007 -6269 0
-2435 -2250 9476 0
-2466 7431 -209 0
6178 2178 8488 0
-6003 8005 9973 0
6695 3608 -5795 0
4201 9028 -2409 0
-6905 -3906 -8218 0
-448 -2408 -15 0
9373 -979 -8429 0
8599 -4031 2241 0
46 1806 575 0
-7253 -8748 6738 0
3559 -7020 -5431 0
-752 -6541 -7571 0
-3151 -2038 7888 0
-3402 -28 5674 0
1156 9536 3275 0
4770 -5234 -6843 0
-8048 6239 -3121 0
393 9997 -631 0
-8685 -4332 -4565 0
5278 7134 -3028 0
113 -1469 9668 0
8822 5482 1498 0
-618 -8279 -1928 0
-188 7191 -743 0
5458 -6009 4658 0
4107 -9471 -5858 0
-9584 -9604 3905 0
4056 -9098 -5696 0
-6937 6498 -706 0
3182 6014 -340 0
-9212 5626 8908 0
-8813 -7124 1571 0
-710 -524 -3927 0
924 -9598 8577 0
-6744 6151 1416 0
212 -9631 -7974 0
6411 5161 -1798 0
-2653 3962 935 0
-8828 9769 -9486 0
7011 -3056 8343 0
-6892 -1290 -6725 0
5512 5930 5790 0
5823 -8636 5220 0
-6831 9471 -4287 0
7945 -4048 -5006 0
-8234 -5686 -6299 0
9831 -6946 -6527 0
5900 -6479 4910 0
-4461 4248 -1245 0
-2148 2297 1934 0
1186 9076 -3637 0
7325 -2278 -1138 0
7434 7191 -3729 0
945 -8270 7457 0
9525 7764 9105 0
1009 9083 -1079 0
5713 -5861 -5778 0
-5350 1672 -4121 0
-9166 -2997 8773 0
-9043 -4031 -76 0
9906 6969 7443 0
-7294 2213 -7736 0
-9209 -3871 9914 0
-8636 -3737 -6321 0
3262 -4860 -8806 0
-1229 7549 228 0
4716 9536 6648 0
2219 -1613 2951 0
-1581 9936 5915 0
1108 3578 983 0
-4452 144 -5076 0
1445 8002 -8961 0
782 -8102 7451 0
-8383 7801 4127 0
239 6469 -1530 0
-6798 -3107 711 0
3437 6794 4278 0
91 -828 -8189 0
2898 8754 7407 0
-4868 -4876 9060 0
7566 -2050 5664 0
3802 612 3725 0
9864 6282 3739 0
-2270 7281 -2053 0
4627 7360 1036 0
7538 7757 3774 0
-5974 5993 -2434 0
-4046 -4658 -415 0
6787 -8026 2246 0
3880 9267 217 0
4083 -5416 -2063 0
-8176 -5766 -8640 0
-3443 -1539 -1711 0
6402 -7453 -7791 0
-6017 -3899 4894 0
8732 -2212 -7924 0
5571 -7636 -7314 0
-8379 5181 1766 0
7977 3311 6748 0
6374 8918 -4993 0
9834 9976 -8036 0
-9099 -1107 8649 0
7183 3320 6082 0
9293 4290 -610 0
-6029 1938 1975 0
-383 4041 3689 0
-5999 8627 9164 0
-8775 -305 6049 0
-6326 -7787 3689 0
-4174 9666 4564 0
-1375 3515 -2249 0
-6846 6271 -8204 0
-4948 -656 3718 0
4636 -3978 -4171 0
-355 -3608 -3416 0
-2996 9871 5556 0
-1538 3381 3742 0
-5218 2410 8106 0
-8965 -9507 -4191 0
8160 -2375 -4288 0
4545 4617 -8934 0
-7572 -2490 -9127 0
79 -4426 -7257 0
-8198 -7727 6989 0
-9165 6668 1299 0
3024 3843 4798 0
-1343 2369 -4176 0
-3177 9080 7073 0
-9954 -3940 2994 0
-348 -3738 -1068 0
-8988 -239 8801 0
-9035 -6320 5513 0
-9556 3613 -9994 0
9952 -8393 9993 0
-1545 5392 1126 0
-2439 -3338 -2814 0
523 1144 -625 0
-930 -3526 -2871 0
-6371 6655 623 0
9766 -3652 583 0
3731 4212 9334 0
-8940 -557 2143 0
3331 8618 -9051 0
-8293 -7055 -9634 0
-6391 5176 -8728 0
-9201 1821 6669 0
8267 -8768 -1589 0
216 -1764 -4794 0
4228 1692 -8166 0
9332 -9552 -7232 0
-1072 3444 5559 0
9161 399 3025 0
7470 -9860 5703 0
-3152 -8237 1293 0
950 1850 8362 0
6893 -3233 -732 0
-9218 4976 2959 0
6645 2135 382 0
5642 176 -2391 0
4987 7741 -1349 0
8757 1239 -5105 0
9778 -4295 9592 0
5407 -7628 -4000 0
3177 2887 -4145 0
-2511 1206 -5181 0
2253 -8608 8712 0
-1779 -5862 9783 0
-2187 8986 4842 0
2946 176 9849 0
494 -7025 -4244 0
-5302 6575 416 0
-5712 7793 6085 0
-4248 5960 -3401 0
-2962 2567 -4135 0
7028 9745 -1150 0
3923 -6450 1109 0
-2439 9155 9455 0
4556 2855 -8370 0
1826 -407 -2861 0
1739 -8079 -2329 0
8607 -8750 -8241 0
439 -8022 7222 0
-6145 5526 -6096 0
9388 7516 -2719 0
-5601 5886 73 0
4223 -1636 3954 0
-5592 4856 -833 0
-1058 4698 5437 0
-1187 6490 -2578 0
-6487 7413 -2401 0
-6061 271 8259 0
1728 -6950 -1334 0
5752 7561 6600 0
-3905 -4836 -3035 0
-9791 7111 5082 0
7489 -4475 -836 0
7203 4863 1542 0
4520 6395 -9687 0
8681 6177 1247 0
-7613 2457 4789 0
-4967 2768 9614 0
3900 217 -7010 0
-5835 1797 9716 0
8186 5637 8749 0
4671 -8975 7932 0
9304 970 7986 0
-6177 1571 -4689 0
5261 -4932 -1763 0
-6255 6259 6751 0
8359 6871 8963 0
5787 -5435 7427 0
-6004 -5800 2081 0
-3492 9745 649 0
-2676 8813 -7435 0
9697 -7108 2783 0
-6430 -9275 8806 0
-6200 -6374 3227 0
763 3239 8645 0
2826 6807 6289 0
1331 -6182 -1011 0
-7535 -9958 1746 0
1151 -1498 -1708 0
-9592 -939 1902 0
-897 -3962 5380 0
8418 47 8433 0
-5001 9498 -761 0
-7738 6085 -474 0
6542 -1233 7996 0
5219 2187 3299 0
-5404 -5958 774 0
-5912 -5338 3531 0
-4426 8955 -2535 0
729 6762 2556 0
9968 8976 8854 0
-7326 4812 40 0
-3572 -8137 3237 0
3407 -3221 6850 0
-7764 -9953 6793 0
4752 4981 -9673 0
6897 6283 -8403 0
4433 -2926 -8874 0
-7490 1982 9148 0
-7457 3778 7714 0
-4154 -4622 -4420 0
-1886 6806 1967 0
-4168 222 -3714 0
4243 -3767 8102 0
226 6447 5529 0
-7491 371 8402 0
1233 3773 -5345 0
-5516 -2756 8851 0
-5940 -1609 -6186 0
4527 -7354 -8143 0
-3851 6297 -4515 0
8190 2109 -8564 0
7689 3310 3644 0
-3805 -9874 -7444 0
-3115 9479 -301 0
-2689 -8175 2599 0
-6581 8798 1912 0
-4163 -596 -1262 0
-7590 9945 -8652 0
-4934 -6074 -9616 0
8061 -4731 6828 0
-8800 -5023 4853 0
-5430 7248 -6529 0
-2721 6166 3253 0
8461 -6563 -8417 0
-6250 2732 -8644 0
-5206 6137 -9448 0
6863 -5731 -7131 0
-363 -1624 5054 0
-6932 1244 681 0
1222 -5415 -8583 0
8044 -5673 2049 0
5026 2786 -3112 0
4760 -5763 1558 0
7137 1555 -1333 0
-1611 7781 -3944 0
3717 -7303 -5826 0
9829 -7814 -8529 0
-6310 -8325 -3362 0
-2502 2495 1509 0
-3262 -8589 -4823 0
-6395 -1796 -990 0
6089 5374 4651 0
8549 7117 -8351 0
7651 -3663 -6978 0
-8461 1620 6800 0
6508 4593 791 0
9145 -4323 -9306 0
-7176 199 5096 0
-8960 -9268 7298 0
9745 -8988 6593 0
-8219 9882 -4237 0
6862 -1892 -743 0
-2610 1864 6124 0
-7916 2246 8777 0
-1505 -3010 -5432 0
-3156 -4720 -9145 0
-5634 -4915 -8104 0
-3458 6393 -6107 0
9469 8932 3511 0
4941 6035 -1242 0
4782 4226 -3332 0
-1081 -2553 -1912 0
-1007 -123 -562 0
-6753 659 647 0
7352 -2188 878 0
4199 2296 5121 0
6553 -5632 1557 0
-9288 5686 -4904 0
3212 5598 -1747 0
-5620 9908 -8513 0
3335 4284 -9601 0
-8551 5560 2341 0
5298 7769 -4999 0
-7444 3422 9854 0
4192 9590 9683 0
-9593 5216 9928 0
5707 9610 1907 0
8959 -7176 9168 0
1159 -5388 -6936 0
-3580 -1556 -8528 0
2824 -7811 6382 0
-8824 8432 -5743 0
8808 -752 -246 0
-4494 4652 -4201 0
2078 9483 -4722 0
6278 -2417 -974 0
8393 9707 1865 0
-709 1768 501 0
-3859 2662 -7079 0
-4198 -377 2928 0
6696 -3906 -4298 0
7647 -6618 -4898 0
8537 -2360 -2770 0
2696 8750 -5661 0
-6626 3195 -3887 0
4221 -427 -8506 0
2873 -1391 4819 0
1394 -3432 8727 0
-9868 1130 -5450 0
428 -1076 -659 0
-2365 -8172 -5226 0
4299 932 -1469 0
4390 1768 3433 0
-3475 7195 3160 0
2677 -8598 8688 0
-3004 -7375 9122 0
-6812 3538 7368 0
-8273 3317 -561 0
-240 5335 6613 0
-9154 8823 -888 0
-616 -6140 19 0
293 6298 4815 0
5226 -1339 -7859 0
5391 -6866 6170 0
2482 -3760 5387 0
1480 6374 -6987 0
-9753 -7427 -1890 0
-3896 5602 4485 0
7095 625 4607 0
-8345 -8491 -4061 0
3393 5044 -3987 0
1334 -2638 1896 0
6467 -134 5645 0
-9833 -7758 -7163 0
7064 -9110 -570 0
9484 -7627 -1812 0
-9047 9644 -4489 0
-8770 -9143 -2619 0
-5117 -7610 9796 0
-5953 1188 -7462 0
-38 4857 1317 0
-1454 3047 -928 0
2688 971 2820 0
2930 6098 2857 0
-6979 2558 -5867 0
-3428 7362 4958 0
6571 4967 -3795 0
48 8248 -1333 0
-1784 -89 -416 0
4122 -5671 7733 0
8237 2319 -9158 0
2216 1822 -258 0
2540 2790 8703 0
8795 -3980 -5807 0
-3968 -2211 6953 0
-6523 -1501 8388 0
4868 -7157 -9936 0
102 -540 -9484 0
-1580 949 -8307 0
8576 8250 -8657 0
-3785 4837 -894 0
3303 7517 -8104 0
-1666 9424 -6793 0
-2291 2839 -771 0
3631 -9467 5338 0
478 9877 -8328 0
2240 -7476 9732 0
1987 2504 8792 0
-2815 3470 -1177 0
-7526 -160 -7754 0
5337 -6785 -412 0
492 -5815 -7825 0
4773 -2448 45 0
-1517 -9829 -6804 0
5328 -3162 4573 0
8371 8025 -6538 0
8884 -7662 -5157 0
-4745 -5459 1491 0
-813 -5177 9723 0
5281 -2371 1176 0
7736 3116 9830 0
9670 -6468 -4038 0
6788 -9798 -9456 0
-5216 -4075 1054 0
-729 4529 -7696 0
-6275 6251 6727 0
-8399 4779 -4871 0
161 -4120 3928 0
-5812 -1790 1541 0
-495 7128 -8711 0
-2281 -7112 -549 0
5937 4891 694 0
-2817 -4279 7295 0
-322 282 9888 0
7921 -6331 -1554 0
-7860 4945 -3318 0
3606 6887 8619 0
-7098 2514 3163 0
-463 160 1329 0
2280 -9128 -6256 0
1455 3592 2000 0
6955 9204 3267 0
6735 4312 -7003 0
-5814 -3253 -5059 0
8807 -8038 5748 0
-6594 -9363 -1050 0
8638 3695 2779 0
6759 -1935 -4022 0
854 -8604 3200 0
-4062 9768 9531 0
-2324 -5760 -574 0
1484 -4906 1823 0
3707 4373 -7630 0
-4102 -5908 7687 0
-3829 2092 -680 0
-689 5706 4224 0
-39 -521 -1486 0
5848 -2970 -6915 0
-9363 -6976 -1358 0
-9309 -2732 3348 0
-6698 640 7557 0
4096 -1260 6279 0
-3310 2782 8805 0
3265 2734 37 0
-2513 4611 -7887 0
3770 1957 4506 0
1027 8707 5076 0
815 541 9574 0
-234 -7057 9318 0
-7784 7969 5082 0
4100 -4942 7097 0
-3097 2980 -2213 0
7934 7769 7962 0
-4286 -7115 1770 0
150 -215 -7132 0
-4049 5668 -8117 0
4558 1810 -5849 0
4494 5157 -5214 0
-8632 3063 3586 0
-464 -3812 -7337 0
-9930 -2755 -2056 0
9 8508 9738 0
3084 -4866 -957 0
-8404 262 -2396 0
-7762 6346 -4716 0
9538 -1550 9669 0
-6086 7005 -4630 0
1650 2976 1314 0
-8257 1291 -6512 0
2980 -1975 3002 0
-5292 3037 1849 0
7798 3468 -49 0
9653 -2138 978 0
8576 498 6801 0
-9236 3278 494 0
2896 8518 7370 0
7187 -7515 -9823 0
-1444 4700 5535 0
4987 -9070 -8901 0
-5921 -2361 7967 0
1906 -6164 -1439 0
1189 -3126 7346 0
-8499 -1906 -505 0
-8507 -5026 -9737 0
1880 3784 -5869 0
-9874 9356 1151 0
5008 6884 1857 0
-9173 -5884 -6764 0
-4759 -9295 8901 0
-9163 -2188 -896 0
-3898 5811 -8339 0
8975 -3628 8393 0
-8824 416 -4127 0
-1584 6176 -493 0
-4598 -4976 -3670 0
-2998 888 -5473 0
-8590 2080 -4927 0
-1661 4973 4532 0
-8409 9508 6866 0
5173 4930 -4285 0
6838 542 -8045 0
-9690 -8245 4679 0
3160 7812 4813 0
-279 -3930 -8999 0
4713 -3782 4936 0
3974 1207 -9986 0
-523 -4276 -9276 0
-6854 -8747 7719 0
-9314 7847 -8406 0
1303 4171 -6789 0
1408 -926 -4312 0
3815 -7420 -5386 0
5615 -6982 -9180 0
-7681 6488 8634 0
-9075 -2278 1411 0
-9033 3238 -5866 0
-5164 8444 -8800 0
4206 -9319 -3626 0
-4968 4071 5422 0
3993 -8985 4737 0
-1983 5363 9856 0
1367 6671 9790 0
7200 -8651 -7610 0
-9503 -2739 4865 0
951 -3680 -8650 0
-9978 9622 1518 0
-8841 -1920 4063 0
2367 -3184 1789 0
8985 -2028 4050 0
6425 8758 -4633 0
3181 724 -7128 0
7911 3520 9463 0
9340 6245 1638 0
-5534 9640 3821 0
-1943 -394 4839 0
-388 2596 6917 0
-1651 1281 -9708 0
-2164 -4540 -6549 0
-1942 -1128 -4692 0
-2593 -49 -8025 0
-8788 4600 5540 0
3353 -3293 5370 0
-1696 -8473 9668 0
-6090 -3719 -4675 0
8510 378 -8660 0
7354 4392 8100 0
-7707 -9217 4180 0
797 -5983 -2212 0
-736 -9930 -3548 0
7110 -3664 2595 0
789 -4863 8816 0
-6453 -616 8108 0
9374 175 401 0
1104 -238 -5259 0
9345 3985 -5999 0
6963 -1172 -3864 0
-2179 -9838 9433 0
2203 -2055 5855 0
8827 -543 -282 0
173 8352 6881 0
2608 -6716 5002 0
-5747 -3748 4096 0
-5753 6298 2710 0
3574 5966 2898 0
3811 2790 -7797 0
6826 9738 7603 0
-1260 6613 -4389 0
-4652 -1024 -3676 0
309 2393 1914 0
-1848 -5083 -4511 0
9168 -6337 615 0
785 -1699 -260 0
-2949 -3864 -2711 0
-2421 236 -760 0
-7131 7531 -2193 0
-6211 -294 7183 0
5022 -7417 2487 0
-3923 6305 -4640 0
-1609 9044 1151 0
2318 -4007 2246 0
1869 7610 -5451 0
-2911 3695 81 0
-9773 3254 -5567 0
4219 9745 -7648 0
-3614 -6387 1648 0
7158 8033 8455 0
-3574 1532 -6501 0
4543 -665 -6719 0
4977 -109 -8962 0
7688 -4646 5027 0
92 7876 8150 0
-6209 82 -6435 0
4335 4222 7676 0
7333 -5988 -9060 0
2199 6060 4017 0
-3674 -7014 -7899 0
-6349 -8094 5192 0
-9095 -7186 6183 0
6752 -293 -7799 0
5997 5949 203 0
8139 2177 -9360 0
3849 9829 -8844 0
7212 -4599 4429 0
1710 -3805 -8874 0
-9053 -169 -3896 0
6244 -294 -7848 0
-3396 -5039 8645 0
9192 -8660 -3783 0
-3564 9326 9380 0
8506 8766 -7346 0
-3422 -6588 -2403 0
3036 -748 -6366 0
6525 3291 -4546 0
-9570 9899 5095 0
8300 -8872 8863 0
-922 -7599 -2655 0
-5196 -8653 6599 0
-5056 5552 5906 0
3157 1444 2354 0
-6851 6239 -6176 0
-3739 -9319 -9099 0
8511 -7638 -4799 0
-2910 -2876 -2655 0
7788 -9642 -711 0
-8282 -5727 -5453 0
6746 3167 -3018 0
-1401 -8780 -2004 0
-1755 -9888 -7627 0
8895 494 -8081 0
-7304 -9460 -8688 0
-2347 -879 -2370 0
-8152 -3865 4127 0
4905 -3129 4171 0
-5579 -1942 -9719 0
-1628 8127 -8554 0
-9039 4337 9127 0
-1419 -4636 -7819 0
1421 1598 9851 0
-287 3924 9884 0
-8075 -9701 -1384 0
1597 5004 -8206 0
9862 -9332 9436 0
3463 9954 5310 0
5143 1194 -5314 0
-5742 9907 -5442 0
-7324 7925 -1535 0
3915 -6517 -5776 0
-148 1245 -5384 0
-4166 4684 -1667 0
-5375 -6453 -6193 0
408 -1174 -2618 0
-871 9297 -2834 0
9255 7165 -810 0
2986 -6298 3852 0
-1468 -2737 9995 0
9213 -2078 9353 0
5209 1516 -9336 0
-4233 -3367 -2070 0
4850 7047 8262 0
948 -1402 -3989 0
-6961 -5219 4419 0
-7331 -2121 5587 0
5349 1805 -1679 0
-2854 4531 5187 0
-7693 -6713 -93 0
7924 -7651 -6676 0
-5530 1925 6887 0
-5056 8393 4314 0
5966 2180 -5275 0
-8397 6820 -3254 0
-1247 9890 6736 0
1771 23 -3120 0
-5402 -3175 -8498 0
5883 -6370 3893 0
1148 1514 -2962 0
5668 3989 4448 0
-2527 4217 3704 0
7428 -257 -4871 0
7205 -6151 -2022 0
8353 -3492 -1467 0
736 -3114 7257 0
3929 -753 2993 0
6240 3799 5434 0
-2943 -7261 -9767 0
521 -4533 -1786 0
2087 -2213 3513 0
6858 6956 -7830 0
-1142 -2528 -4208 0
1836 -1045 9814 0
-2196 627 -7319 0
7716 -3428 -3752 0
984 5762 3073 0
2868 204 7114 0
3224 2914 6111 0
-3461 7487 -1366 0
682 -4062 -4519 0
5797 4671 1846 0
-7429 -5262 5359 0
7701 1255 -5392 0
3451 -937 9092 0
-6294 -4565 2429 0
-5288 3687 3997 0
9134 5808 -5499 0
-6706 8516 9467 0
-8057 -9540 -8994 0
3975 -7833 -4303 0
7194 -5136 -1173 0
3819 3610 2104 0
-6949 -4423 8775 0
2116 -9637 -7216 0
-8229 7541 2402 0
-1446 -1005 -2868 0
6774 3107 -3078 0
-9306 -3807 7868 0
-26 2675 -3799 0
-5660 -6720 -784 0
-6167 3765 9164 0
-5578 -1205 6118 0
8098 -7795 5595 0
4861 2363 3910 0
1193 2002 5885 0
6509 1267 9388 0
-4324 6171 -73 0
7286 2774 1285 0
-4479 -6083 7787 0
-1012 -7728 1099 0
3563 1720 2156 0
-2089 481 -7172 0
-1913 -3581 4600 0
-9480 -1659 -4481 0
-7726 3806 -790 0
-8856 -1167 2680 0
-8745 323 -936 0
8392 6973 -203 0
-1395 3376 3543 0
9623 -7336 3826 0
7348 -3379 -7786 0
-8214 9715 7140 0
-3707 3947 6552 0
-5261 4170 3858 0
-8486 6132 721 0
6629 -4196 3561 0
182 -854 -6853 0
-8385 4980 6397 0
8349 5537 -6116 0
8870 3639 -5125 0
-8717 -6723 8808 0
-5774 1618 8389 0
-4936 2044 5363 0
-2137 34 2744 0
5750 -5987 -3634 0
-6079 -7191 8064 0
-9021 621 -2650 0
8371 933 8775 0
4156 951 8673 0
8624 7958 -5853 0
7989 -3919 -9917 0
-9025 -4894 -4125 0
-2741 -8882 486 0
6254 -7678 5784 0
5788 8249 -8519 0
-4175 -6589 9966 0
-6342 -7028 3808 0
-5270 -5519 -1288 0
1107 8061 5087 0
-9752 -7184 3854 0
220 -6207 1886 0
9717 3634 -913 0
-1285 -2595 -1788 0
-1837 -3232 -386 0
-4267 9408 -5756 0
2204 3881 -1510 0
4405 5832 -4524 0
-3257 -1915 9203 0
3388 -9872 -1565 0
-4312 4433 5414 0
2854 -8498 -3159 0
9760 -7251 -8477 0
5832 7009 -4575 0
1580 3537 -3894 0
-2287 -7970 7196 0
6852 -2853 9294 0
-581 486 5968 0
-5375 506 3417 0
2694 -6025 6980 0
4234 -9716 4372 0
7847 -2099 -8587 0
9323 -4185 9231 0
2055 -8945 3075 0
-1003 -7370 -7407 0
6072 9650 -8101 0
-9436 -9798 5569 0
877 -6360 -1819 0
-1982 -7836 9809 0
1155 5110 -778 0
8527 -8179 -7266 0
-1711 8795 -7578 0
-6291 6785 3565 0
7650 -1939 -8792 0
-4117 2735 3595 0
-1868 5463 6691 0
-6878 -1460 6112 0
1157 899 5685 0
-5226 -2807 -2445 0
763 -7401 -5959 0
-9025 2761 1874 0
-3564 -5331 -8915 0
-6108 -1854 7067 0
8156 -823 9696 0
4640 -1781 2233 0
4911 7006 8420 0
6517 2085 -9494 0
-8788 3513 -7770 0
-6246 1424 -4783 0
5695 -9191 -5483 0
-503 -8148 -1634 0
-8937 -1720 -8833 0
-2052 8971 -1257 0
-8311 -4181 252 0
6683 -9704 -7584 0
963 7537 -4098 0
1804 -2865 7433 0
3142 6652 6771 0
-9976 7566 -9678 0
-7264 7282 4495 0
-9550 -6577 -7452 0
4476 -934 -9832 0
4109 7834 6034 0
200 -386 -7130 0
1739 3404 -8957 0
6207 -1269 2814 0
4004 5711 5220 0
-827 8285 8922 0
-8770 8046 2510 0
5956 -4764 -4125 0
3105 7434 5225 0
18 5122 3192 0
-320 -5405 -2728 0
-503 5376 7248 0
6358 8218 -1855 0
9503 -8003 4733 0
-7390 4187 -8238 0
-8669 5550 4807 0
2336 4322 8309 0
-6051 6393 9105 0
8323 1122 -2584 0
-5673 -1134 1403 0
-3318 -4972 -1553 0
-5981 -5716 -3946 0
7680 2045 -8030 0
-2059 -7070 -673 0
-5726 9289 -5637 0
6315 7437 -5151 0
-60 -2221 -386 0
1366 -5025 -1808 0
1493 7924 -5358 0
7211 -6567 -8519 0
-804 2362 -3384 0
7158 -6685 4719 0
-8451 -4809 4207 0
6875 -3770 -2868 0
8983 -5213 6092 0
-2199 1606 8685 0
-59 9319 9850 0
1198 9577 -2295 0
496 5132 -4266 0
-3454 -7589 6203 0
1283 -4441 2460 0
9199 6237 -1219 0
705 -1112 -7531 0
-3159 8264 -8283 0
7432 1007 7829 0
4881 -2458 5999 0
3804 823 8974 0
-5963 -622 1205 0
1412 -183 -6694 0
-6915 -81 -9598 0
-1819 2713 734 0
3002 -2815 5256 0
-84 9011 564 0
-3061 -2629 9865 0
-6324 5626 7956 0
7079 -7043 -4265 0
-9410 4742 1926 0
3175 -1667 -374 0
9694 3123 9965 0
-2423 1194 7356 0
3339 5180 -1936 0
-9167 -2060 8662 0
653 9110 1582 0
-5898 -3516 7952 0
-3488 -4616 -4024 0
3047 -4361 4796 0
9350 878 9064 0
8226 -5893 -1900 0
-8978 4591 -8649 0
-3660 7818 5070 0
-1287 2254 7199 0
-7678 -4171 -1654 0
321 -4226 -9670 0
-9204 6712 5197 0
6709 -4284 -5401 0
2516 1432 -7689 0
2983 -3416 7657 0
-3283 -4289 -9595 0
851 2361 -496 0
-6510 27 -1160 0
-8594 6779 -8193 0
944 481 9519 0
6546 1807 -1938 0
8110 -9433 4652 0
843 -6320 -9590 0
-3676 4387 2348 0
-3398 1288 -7982 0
-6565 5222 -9726 0
-681 -2907 4736 0
-6771 9341 -9320 0
9456 -7656 8633 0
4730 -4641 -859 0
4323 7397 -4991 0
995 992 6097 0
8928 613 3031 0
-1575 -7315 9168 0
4043 -3289 -8544 0
4736 5173 -3337 0
-4216 5619 -2170 0
-6243 5402 -21 0
6648 6265 -8967 0
7610 9836 8135 0
-8377 -4906 9104 0
2132 -6450 -6197 0
-5966 -3540 -4926 0
8212 7114 8527 0
-3006 1083 -8364 0
-717 -79 2665 0
-705 9349 -949 0
-2725 -1754 -9912 0
-4444 6955 3255 0
8450 -8869 9327 0
3009 -7948 4987 0
-7817 6287 1054 0
7772 -1419 1241 0
6762 7984 7062 0
-4535 -2670 2611 0
117 -5306 9064 0
9530 -3605 7762 0
-1252 -3527 2171 0
3473 -7561 -2550 0
8843 342 1865 0
1884 -487 -5731 0
-6691 -6420 -5243 0
-7488 5285 -55 0
5060 -6360 -7143 0
-2302 8254 6437 0
-4092 -200 9552 0
-2417 6643 1660 0
-5198 184 7415 0
-8109 9329 5379 0
5666 -3339 -3611 0
-5600 3134 2298 0
7027 6545 -2078 0
-2969 -6394 3985 0
-9186 -8493 -4757 0
-3608 6531 -3294 0
6995 -3232 3980 0
-4346 -6413 7698 0
-250 1969 5950 0
4977 -4574 -7101 0
8062 -5361 -8994 0
-5109 7201 -9624 0
6778 -2974 -5665 0
-1844 5761 5321 0
-5181 52 -7088 0
-1640 -2063 -7167 0
-8341 -4606 9556 0
579 -3359 8174 0
-9547 2446 2139 0
6496 2821 -9105 0
-9342 4778 -5082 0
-3243 5849 9235 0
-7940 1126 8286 0
4700 2426 668 0
-6487 8949 8158 0
-4610 2399 -4983 0
3596 -7975 -1773 0
-2718 1858 2813 0
1484 -5766 3573 0
338 -6762 9580 0
-6998 4077 -7479 0
1964 -273 9666 0
683 -4126 -9433 0
6512 6955 -2298 0
-9490 -1397 -9036 0
-172 -4850 7337 0
4102 7426 8105 0
6754 4084 -4081 0
-8158 9916 1127 0
-5306 1333 7939 0
-7444 4189 -1856 0
8243 -7702 4196 0
-7474 3730 7118 0
9845 9461 -9103 0
7824 -7036 -2379 0
4368 565 -412 0
-750 5193 9358 0
4736 6136 -9978 0
1214 -3127 -1 0
2579 -304 -878 0
-5398 1336 1404 0
1015 -9124 -4764 0
2260 -816 -3334 0
-6031 -757 554 0
799 5288 -7823 0
-6825 -9450 -7178 0
-5464 9068 -7733 0
-3510 -6907 7106 0
-516 -6471 -1671 0
-9376 6786 8884 0
5230 173 7104 0
-3763 -2588 -6896 0
6418 472 1836 0
-7090 7839 -1860 0
-2979 8079 8872 0
3557 -273 9846 0
4720 3795 -5992 0
7853 -7647 8955 0
-3611 4136 -740 0
2387 8970 -4445 0
-9442 3780 -9519 0
5074 4132 -4660 0
4457 8071 -7713 0
6636 -4545 -1843 0
-7584 5967 -6929 0
-5709 -2481 4489 0
8364 325 6196 0
2731 9991 4654 0
-9017 -9217 9556 0
-1598 -3131 -9612 0
-6837 8120 4049 0
3486 -9585 9270 0
2028 -5910 -3565 0
-7844 -5361 9443 0
2494 -1159 -3838 0
9726 824 4278 0
-7192 -5915 -9945 0
-309 7530 1828 0
8403 -4895 -5913 0
4065 1613 -2489 0
-5946 -8572 -8181 0
481 1631 -9879 0
2500 -1934 -6922 0
-4775 8807 5304 0
8526 2752 1255 0
-5660 -2982 -8163 0
5081 7677 131 0
4714 -1049 5811 0
9127 -3729 4482 0
-7711 -6721 4471 0
7691 5356 3784 0
-212 9126 -4988 0
5007 -8279 -5900 0
8401 748 5592 0
-4626 -4480 8842 0
-5891 3012 9669 0
-2900 -3279 1389 0
-834 -8467 370 0
7542 -428 -3830 0
-2895 6162 7373 0
-495 -2392 -9868 0
-7518 2762 -7132 0
5859 -8495 5183 0
-9754 -6570 1141 0
5933 -6339 -3729 0
2217 6707 -1831 0
5900 5591 -3960 0
-9054 -6911 2810 0
9589 -2949 2919 0
-9428 -4992 -1382 0
-2910 -4306 -5278 0
2350 5668 4272 0
-6578 3732 -8612 0
6147 -805 2395 0
8985 546 -929 0
86 -2420 -3978 0
-2891 -5271 6054 0
4000 3526 7377 0
-3109 -9208 -2819 0
-8993 3327 -1669 0
2661 6879 -3639 0
5810 -557 5920 0
7751 -5499 6107 0
-2496 7023 -6836 0
-478 -9742 -9551 0
7323 -8910 -3659 0
-828 1565 -3173 0
-7676 5009 5010 0
3396 2229 -3314 0
1738 -4371 -9468 0
8762 932 -5006 0
21 -7546 -8301 0
8883 -7232 6609 0
9611 -1456 -4282 0
1665 -7816 3929 0
-5789 1066 6050 0
-8086 8825 1635 0
-11 -7613 9489 0
5967 2696 3656 0
-2163 5863 3290 0
-514 2773 -6454 0
5813 5927 2121 0
4227 3607 1117 0
-8640 -4726 -6891 0
7239 -3415 -8310 0
-5266 1806 -8133 0
-8672 5083 1089 0
-9858 950 -9439 0
-2480 3592 8756 0
-8251 5157 9438 0
3984 6775 -9820 0
6829 8760 -455 0
3262 -953 7804 0
-4817 -3007 -6564 0
8009 9645 -4855 0
-818 5579 5857 0
-9184 971 -6772 0
5271 -5847 -6204 0
-7176 8352 8181 0
8851 4702 7574 0
4631 -6433 -2687 0
8380 -2082 7210 0
4491 5700 9234 0
-8915 -2037 -1099 0
8955 -1469 -7502 0
-6206 4368 2001 0
799 2620 -6370 0
8858 -7762 7821 0
-3189 6798 -6292 0
-8882 9122 -5362 0
9111 -3585 6408 0
-7499 3901 -8391 0
-1220 2412 -5567 0
-5196 1398 -4082 0
-6924 1784 2262 0
-3847 -730 -8181 0
3169 7735 4357 0
8125 5450 7898 0
3855 755 -7395 0
2925 -2470 7645 0
2291 -8773 233 0
4397 9338 -8213 0
-7321 -2448 -7830 0
-4430 9510 5548 0
-6740 3709 -1405 0
2880 7401 5759 0
7252 5905 -7879 0
5577 6615 -367 0
213 -3917 -6086 0
-5390 2775 -2580 0
8772 -9585 -8562 0
-5704 -2301 -5143 0
6919 -5195 -3502 0
5038 -2668 8987 0
6035 2246 -2279 0
-1990 -5751 -6497 0
-6917 6069 -8979 0
2006 6520 373 0
-9815 1020 -9521 0
-372 9051 191 0
390 -5534 5786 0
-9471 5097 3201 0
5436 1715 1321 0
1079 49 4929 0
-2444 -1156 2468 0
-2849 -9914 3876 0
-6188 6455 3456 0
3326 -5321 -9249 0
218 6049 9666 0
-8561 318 -335 0
-5080 8730 2205 0
-3735 -8994 4505 0
8053 5060 8808 0
6486 -6209 8678 0
6866 -1679 4796 0
-6969 -2139 -5208 0
-8202 6682 4734 0
6045 4806 -1689 0
-9290 5441 4781 0
-1910 9135 9619 0
219 -6301 8468 0
-7164 474 -4617 0
2500 2310 1831 0
-4818 3086 -9033 0
9223 -5481 -4094 0
-5584 -5394 1790 0
-6998 994 7634 0
2889 -3001 5178 0
3436 -7406 9744 0
5961 -4833 8305 0
6435 4223 -3716 0
-5701 -6664 6444 0
-9903 4011 9711 0
-6962 2270 6437 0
-6234 9118 -7434 0
9834 7846 5299 0
1858 5906 -6094 0
8168 -9495 5428 0
3713 8233 -367 0
4820 -9163 -9895 0
-912 2803 5228 0
-3713 -1941 -8469 0
3005 -6831 -2331 0
6153 1011 7777 0
-1329 -7977 -4512 0
729 7649 -4464 0
-3686 -6858 2661 0
-9632 4543 1724 0
5033 -6171 2912 0
-7517 1966 2050 0
5432 6775 3456 0
-7901 -7413 -5609 0
4642 9782 -2238 0
776 2062 -8896 0
-9247 -7189 -2444 0
465 -6440 2146 0
-2664 6953 3494 0
-9620 -9491 -2375 0
8981 -7016 1710 0
-1977 384 -1952 0
6267 -965 3143 0
-2766 4685 -3983 0
9170 9315 -3650 0
-4947 6504 696 0
-3834 6187 -542 0
-9673 5736 -4232 0
-762 -9423 -1416 0
-9136 4042 -7027 0
-8969 -7358 -7791 0
-7719 8841 3367 0
2995 3033 -7975 0
-8908 7877 -782 0
-5683 5831 -5373 0
6241 9344 1710 0
-1218 4120 3681 0
-8162 5341 5944 0
1748 -8020 4326 0
2747 -3983 -9873 0
-6496 3462 6108 0
-731 7382 -835 0
-1129 -2212 7982 0
3708 -948 7351 0
2643 -4399 3944 0
2927 -5966 6007 0
-6849 5929 -8599 0
-2018 -5505 -349 0
2148 6957 1919 0
-9210 -7759 -3828 0
1831 -6593 4180 0
9251 9819 -1090 0
-1490 489 -439 0
-7260 -6233 5286 0
6663 -240 -1824 0
-2980 2679 -3803 0
4379 1709 -175 0
-9340 881 6932 0
69 -4426 -4912 0
1266 478 -3246 0
1397 9441 3491 0
5382 3682 1412 0
540 -9946 -7762 0
2902 -8783 8908 0
-3600 7858 747 0
347 -6919 2277 0
9700 9165 -7002 0
9951 -8670 3961 0
-1906 1400 -4062 0
-9271 -7870 -4742 0
-6551 -3919 845 0
-7868 -6 3081 0
-1165 5731 1130 0
-7303 -7082 -5177 0
5238 2882 7396 0
4087 2062 -2484 0
4648 3126 -8939 0
-3245 -7823 2980 0
-3713 4922 -9158 0
8718 8456 -5080 0
-1467 8710 1576 0
6208 -8561 241 0
-7730 -3666 -3792 0
-3663 396 -1921 0
9351 -9116 -912 0
-2156 6078 5693 0
5128 632 -6933 0
-1221 493 1152 0
357 5959 -4896 0
3546 -3680 5174 0
5378 603 5905 0
-7950 4038 4951 0
6438 -3601 3327 0
-9740 6550 -5500 0
-7706 9665 6999 0
349 7739 -8448 0
9383 -4253 -254 0
-2270 1604 1000 0
6881 5547 -4677 0
2784 -8451 4641 0
6474 -4203 -1608 0
-6929 -2048 -9026 0
3298 -4067 8658 0
3704 -8938 -8138 0
-4861 4409 9700 0
-1305 -8921 -4074 0
2609 -8941 2987 0
3466 -110 -4103 0
-4258 2104 -6958 0
-6037 -6077 3638 0
-1683 4926 -9259 0
3759 7015 -5325 0
-7288 4728 9305 0
-7671 9580 -9859 0
-3176 -9986 6704 0
-8945 2623 -5754 0
-7476 -8540 -3090 0
1725 -9544 -2012 0
3204 1085 394 0
-3857 9456 -9228 0
-2224 580 -627 0
1098 3131 8563 0
-1685 434 -2616 0
361 -3868 3479 0
7863 1663 -7290 0
8226 -3945 6515 0
7628 7400 8581 0
5425 -1038 5797 0
2924 -6435 6307 0
3203 -8507 -5799 0
1537 -6579 6135 0
-1495 2510 6618 0
6826 1030 7228 0
3547 -7830 6409 0
953 6759 1412 0
4028 -5171 615 0
-6340 6631 1528 0
6400 1030 -8543 0
-4285 2913 5291 0
4715 2666 4283 0
-1184 -8161 1808 0
-5685 -6137 7367 0
3966 -239 4353 0
5282 9337 804 0
-6237 3741 5315 0
4100 -4936 6021 0
4474 -7479 4249 0
-9269 5749 4939 0
-3847 8464 471 0
-940 -3048 7110 0
-1457 -5891 1780 0
-46 -6817 6138 0
-5745 -420 5619 0
8004 -5666 9629 0
-1575 191 -9335 0
-9844 5894 -4002 0
-9066 -6159 -6676 0
9739 2394 1964 0
-1219 9877 1050 0
-7860 7764 335 0
7220 3357 -5464 0
9638 4943 1321 0
-6113 4048 -95 0
-1460 -7801 77 0
-4538 -9349 -151 0
1990 9033 2471 0
-8256 -8599 4798 0
-261 -4196 2655 0
2566 5453 -5860 0
7098 -7158 -6337 0
-4357 8882 3912 0
-1757 -7958 9830 0
8068 7310 6225 0
-5449 5917 7814 0
1853 -28 -7726 0
-2497 8193 7655 0
-9182 -9640 -7825 0
-6709 6790 2326 0
2909 5076 858 0
-6435 3051 -5185 0
7750 5118 5010 0
7843 -6130 -1218 0
719 -8892 555 0
9638 -2351 1826 0
-9596 -3125 -8752 0
9008 -6313 1414 0
-9325 -8652 -5714 0
-4582 4470 -8378 0
9454 -9110 1262 0
-1101 1143 2948 0
6564 7689 8919 0
1951 8765 -7999 0
6229 1830 -9363 0
9899 -8286 -1003 0
9074 5907 9832 0
3091 4994 -2292 0
610 6124 6447 0
-2167 697 4195 0
-2634 -1831 -8691 0
3369 9395 5566 0
-9204 -7418 7424 0
-6474 1390 8763 0
514 -5856 -6173 0
-5197 -6101 -2451 0
1598 -2618 -2427 0
87 8765 -2900 0
-665 3404 7748 0
-4040 6115 -3841 0
-6635 4578 8065 0
-4636 5763 -3559 0
2048 -125 -5226 0
-5833 497 -3409 0
-2125 2936 5452 0
-899 -5913 -9914 0
2979 44 7986 0
-4937 7138 2044 0
-1521 1215 4003 0
-1832 -7629 -2605 0
2898 -1639 -945 0
-2548 -3965 1454 0
6121 -8240 -8309 0
2992 875 305 0
3161 -6166 7871 0
-9401 2721 8123 0
-3935 7698 -3658 0
3763 4678 4871 0
-3893 3420 -5806 0
-221 -8000 4478 0
1196 -2431 -8303 0
-7947 3590 8044 0
2890 -9816 1787 0
-3878 5857 7425 0
-2400 4670 4627 0
6854 610 5628 0
5560 611 1428 0
8780 -7634 8749 0
-7849 -513 4155 0
-1378 -1441 3649 0
1579 5657 3553 0
9988 -9477 7055 0
-4857 -7018 3044 0
7104 4680 1902 0
3913 -4213 -6163 0
-1393 5467 5695 0
-3541 4772 -5848 0
-1239 -4390 -1485 0
5722 376 8663 0
-5024 -6613 8904 0
-6835 -3188 -9136 0
-3363 9800 -5816 0
1611 -3410 4207 0
-8585 5351 -8557 0
-850 -4366 2100 0
3374 5640 -9338 0
6337 -9791 -6277 0
-4275 3763 -4706 0
-3229 -4588 3782 0
-1371 2769 5496 0
5488 -8115 9210 0
-7466 -9451 -4127 0
-80 -2313 -56 0
-1162 -8318 3653 0
-1959 -4809 6208 0
5911 -5653 -5950 0
-8924 363 -7281 0
9360 6722 -8715 0
6496 5857 5224 0
-5665 -3961 -2409 0
5029 -3796 3196 0
-2965 2057 7999 0
-4478 -7817 3038 0
1582 2573 9164 0
1937 3012 -9486 0
-8553 6314 -7304 0
-3063 -2163 -4027 0
-1539 -5280 -16 0
1229 -8508 244 0
-3863 -3574 -8519 0
4130 -2460 -6831 0
9962 3173 -4500 0
8174 -7208 4630 0
-6793 4853 5635 0
-7484 -8341 -1161 0
7022 6625 7504 0
9182 -4454 1607 0
3959 -4783 6535 0
-9164 -5383 -2885 0
-8883 -802 -6052 0
7290 -7382 -3335 0
5217 -1940 -557 0
6294 -4241 3209 0
5931 -5028 -2639 0
3835 -7145 -799 0
-9172 -6591 -1009 0
-5882 1378 -6950 0
3665 7796 378 0
-8240 9327 -4044 0
-7655 6883 1741 0
-9239 -7970 609 0
-2612 -9861 -3119 0
4532 -5849 -9888 0
-9930 722 4635 0
3722 8689 -4841 0
-6588 9301 -4438 0
2394 -7687 7388 0
-9819 -9071 -9102 0
-7091 -5613 -1671 0
9050 -2487 -509 0
1219 -206 -4165 0
-4991 7021 -8681 0
4412 4882 5792 0
-4704 -7807 7275 0
-9136 8831 4550 0
6195 6060 -4646 0
-4079 4421 6220 0
2922 -1906 7176 0
-5956 3985 798 0
1616 -2901 3896 0
-5756 -1032 -9648 0
-7672 2145 -2418 0
1481 397 -1694 0
4974 3378 -3749 0
6081 9164 -1693 0
-7748 -9919 -4863 0
-8373 2090 6856 0
-9917 -49 -8213 0
-5068 3137 -2473 0
-7339 -1776 -4318 0
-2556 1635 1270 0
-2724 -5419 -7714 0
-7617 -7635 1259 0
991 206 1340 0
-4964 9438 -9685 0
-182 -1019 -3913 0
3159 7634 -7720 0
7718 -3449 -365 0
8937 7347 1612 0
1318 -97 9561 0
-3989 5529 -2273 0
9193 4257 -3238 0
-8228 -1616 4565 0
-1083 9788 -8114 0
-6214 5898 8748 0
4781 2034 9366 0
2207 9419 4369 0
2938 -902 4127 0
883 6292 7504 0
8040 -5997 -6527 0
-6980 7421 3041 0
-1799 3364 -5047 0
7818 -1131 4294 0
6052 -5704 -6147 0
4095 -9013 -2029 0
2493 -7317 -2673 0
-584 -3711 3524 0
3288 6261 -7290 0
-7700 -5880 8520 0
-1882 -561 -2965 0
3379 -6576 8430 0
-7664 -1013 -4650 0
-6245 966 3930 0
-3202 -1641 4457 0
4152 -3510 -4206 0
-4637 -214 784 0
-7984 7253 -6378 0
-2477 2984 -8843 0
2163 -2702 1155 0
-1876 6951 5132 0
6181 -5053 -3380 0
4059 -8724 1722 0
6016 7685 -4192 0
3657 -8525 -7361 0
4009 -8226 -3234 0
6798 -3369 -5531 0
-894 -5600 2382 0
8791 4620 3707 0
919 -3404 5489 0
-4951 -1122 -9211 0
-6000 -3455 -1021 0
5713 -4154 9689 0
8119 -2232 6093 0
-5271 9614 -9851 0
-4177 -4794 1946 0
1781 -5998 -4329 0
-5835 -3015 -1026 0
104 6800 -1419 0
2152 1774 1679 0
-112 3108 9647 0
6604 970 9971 0
471 6932 8134 0
-8808 -5857 1008 0
4436 1417 -7428 0
7388 9446 -4441 0
9476 5324 -5053 0
-3949 2398 -4055 0
6006 7838 -8946 0
491 1048 -5520 0
5165 -8195 1494 0
-4280 3671 -4919 0
3850 -303 -647 0
2544 1119 7190 0
-7550 -657 2713 0
8978 3777 7243 0
-9489 1049 -958 0
-1217 2350 3195 0
-3407 8789 -3875 0
-137 3548 -2973 0
-5303 9385 -282 0
90 -4153 6229 0
-4876 8254 -5210 0
6266 1081 4404 0
7935 3961 -8044 0
8719 7250 3019 0
-791 4365 -9631 0
-5832 7625 -2277 0
9461 -3158 -9350 0
-9201 4387 -3296 0
-5820 4797 9570 0
-7955 5500 5005 0
6795 -8120 7104 0
-313 -5918 3013 0
-6731 1328 -8755 0
-5824 -1381 -3377 0
9566 3361 238 0
-4461 -313 -6831 0
85 -5586 -9764 0
7948 -99 -5548 0
-1588 3756 -7513 0
1347 9166 -809 0
-482 7877 4805 0
5656 -9768 6588 0
4515 -3566 6320 0
341 -5391 -3043 0
4226 -7735 -6783 0
570 319 -9083 0
-6013 -446 1270 0
5030 3016 -765 0
3023 7084 2345 0
-8722 8943 -3760 0
199 403 9133 0
-54 -5563 -9161 0
-3795 9589 844 0
-5179 4825 6887 0
-8718 -4536 1377 0
-2801 -8125 4331 0
-4372 -3588 6795 0
3312 -3789 2191 0
3864 435 6712 0
9337 -6534 -2440 0
-6411 -4076 8101 0
1700 -1810 -645 0
87 9641 8121 0
957 -6361 2000 0
-8124 6587 -689 0
9714 5265 -3645 0
3827 2598 -6321 0
-905 -5361 6403 0
2271 4512 -4386 0
-5565 2130 -5175 0
-2633 -2701 6232 0
-3945 1676 5928 0
8626 -2075 -6327 0
-6972 4024 8163 0
5267 -4766 4153 0
4291 -6865 5797 0
-2834 -1490 8324 0
9526 -9367 8980 0
-3582 1980 87 0
3762 -6614 -6001 0
9748 8910 -2613 0
6932 -8270 6937 0
3256 -8144 195 0
2421 5551 -9775 0
1822 8395 5702 0
-6249 -287 9115 0
3952 9071 865 0
-2135 -1278 6951 0
220 7584 9175 0
-9571 2955 4485 0
527 6495 -8941 0
8207 -4606 -970 0
9912 -3836 9770 0
3309 -235 4793 0
2275 -8862 -2660 0
-2228 5153 -8296 0
-8245 5775 -2670 0
-5490 -2929 562 0
5007 -4565 9873 0
8867 -8243 9207 0
7642 -6540 -3258 0
7617 -8958 9580 0
-7134 9553 -5039 0
6993 -7675 -4866 0
7159 7845 -9060 0
5478 9230 -4165 0
7038 9293 -4539 0
4428 2312 80 0
-5384 1475 -326 0
3047 8416 9918 0
-100 5306 3385 0
-9129 -3731 -4058 0
4818 4673 3221 0
2585 8935 6216 0
-6747 1341 -2724 0
6618 -3152 1542 0
-5016 9766 -5347 0
861 -397 4851 0
-8194 1118 610 0
3074 3716 8236 0
-1165 8887 8218 0
3863 -1141 4783 0
4595 4481 9418 0
-5998 -5916 2697 0
-3324 -3553 -3628 0
-5162 6800 2776 0
8990 -7831 6212 0
-7505 9241 -5911 0
7328 -1970 -4996 0
7550 1824 -3892 0
4108 -6382 -9469 0
9355 5153 -3016 0
-6061 6694 7447 0
2426 4669 3360 0
3158 4905 1649 0
-9696 6527 8953 0
8421 1358 -4561 0
-119 -1011 -7989 0
953 -4750 -8622 0
4878 6861 4240 0
-369 3983 9676 0
9496 -5198 -5164 0
9196 -5806 510 0
7064 4926 -3453 0
-9037 3366 -4181 0
9744 8573 9080 0
-3885 -3677 -7363 0
-8591 -2895 -9640 0
4423 3402 167 0
2811 -5252 -2607 0
28 2609 3548 0
-9347 2569 9064 0
-1058 -4241 -298 0
2709 -2984 6025 0
3905 9816 -1445 0
-7441 9985 -1651 0
2383 5860 8736 0
2152 5962 3580 0
-8058 -5452 -9315 0
8704 6347 2209 0
-1885 -5875 7389 0
5415 4939 4789 0
-7314 -224 -5932 0
5806 3633 -4084 0
5738 6209 8752 0
9010 7665 -7622 0
4669 3995 -5668 0
-4542 2460 6092 0
7827 909 -262 0
9133 8354 178 0
-605 8725 -8289 0
-6532 160 8426 0
520 -7996 -1420 0
3552 -862 9848 0
-6349 6768 6954 0
-1061 9868 -9728 0
-1065 -8651 -6262 0
492 6513 9376 0
-3339 -7970 6234 0
-7088 5301 -3532 0
-7125 -1271 5293 0
8106 -4670 4201 0
3283 -9750 8771 0
5901 -3962 -9199 0
-5245 5467 -1011 0
-7058 3307 -4958 0
-9252 -8508 -722 0
-4773 5731 4033 0
6356 4392 -2526 0
-6452 -4325 4556 0
6799 5492 4680 0
5300 -674 1196 0
190 2294 -2883 0
6218 -3320 -3820 0
2074 -1451 -1654 0
-5696 -1472 -5476 0
-2015 7537 7459 0
-5966 -5432 7593 0
9081 -9260 2410 0
6957 4671 3891 0
3390 -1012 -4583 0
516 -3738 1929 0
5321 1918 -5329 0
-4236 7636 7299 0
-8304 -5057 7897 0
3975 9421 -2889 0
-8174 -721 7910 0
6009 5740 9926 0
-4606 3818 6666 0
-5210 2825 9820 0
-2602 1827 7416 0
-422 4147 843 0
-9224 -9573 -799 0
3079 2088 -1369 0
-2740 -5596 1934 0
-1887 -4364 -7235 0
-4281 -6395 2927 0
6291 4727 -8249 0
-4776 9047 -2131 0
-5148 -8710 8907 0
5339 3922 4818 0
5378 -7070 -6355 0
-6864 -9734 -1544 0
-7932 8528 -7342 0
4854 1337 -3265 0
-634 7999 2699 0
9199 5900 -8804 0
-1093 558 6740 0
-5018 8405 6652 0
-860 -5075 2214 0
-6201 -1890 1515 0
-5851 2045 705 0
1173 4986 2368 0
4000 8159 -6863 0
-6628 -6788 7218 0
-5934 8329 6325 0
7805 -6898 8966 0
1372 -5121 -3486 0
2379 -6728 -1265 0
-1838 315 9677 0
9482 310 -2918 0
8338 -8151 2068 0
2974 -8988 -9659 0
2673 6709 3255 0
-2100 -763 8688 0
-1579 8390 7201 0
221 -3409 -5445 0
4676 -6181 -4619 0
-4527 -7090 9498 0
-8304 9314 -3941 0
5630 3648 -3643 0
5885 -2031 549 0
-2411 9642 -971 0
4759 3385 -1024 0
-5254 5625 -1076 0
8743 -7549 3858 0
8797 8252 1721 0
9708 2091 -8085 0
-4389 -3219 -334 0
-2587 -7404 -7547 0
-6417 8443 5376 0
-6851 7248 3472 0
-1326 5558 5945 0
4326 4182 -2410 0
-9806 -6255 -5006 0
4296 9779 -7612 0
-2763 191 -974 0
-4729 -290 -9775 0
-9685 1928 -4914 0
2071 6616 -4559 0
2047 -7195 2367 0
163 9856 -2817 0
-8414 -5186 4981 0
3748 -4992 7405 0
-4829 -7918 8382 0
9819 -2545 -1384 0
-6682 8802 6581 0
-6302 -731 -2943 0
-6809 -392 -5914 0
5638 3963 6634 0
7184 2558 5976 0
-9078 1560 5411 0
-3730 -4441 -7722 0
394 1066 8432 0
-5945 234 -3911 0
-2409 -1582 -7998 0
-327 -3829 -849 0
-5643 -3384 3390 0
7416 6270 9661 0
9059 -6790 -2197 0
-2794 -3700 3054 0
-4312 -5608 -3133 0
8039 1839 3950 0
-7691 6460 -4768 0
8899 9449 -5165 0
-7119 1359 914 0
5309 -6754 7736 0
-4985 -6318 -4341 0
925 1162 2386 0
-2190 3099 -8163 0
-730 8537 -5195 0
-5043 6944 7964 0
2890 -4127 4999 0
-4973 3123 549 0
1969 4738 9970 0
2189 -7117 4992 0
3200 -1537 -4768 0
-1587 -5765 830 0
-6114 3037 3376 0
-7743 -2278 231 0
-3292 -8176 8634 0
-1109 -2701 2016 0
4361 5103 -1888 0
-6866 7269 -2164 0
7715 2934 2062 0
-7377 6105 8359 0
-8265 3624 -5191 0
6208 3230 3620 0
-2376 -8697 -8128 0
3794 -3724 -5886 0
-5306 4281 -4630 0
8970 -9457 -3686 0
869 6964 -9575 0
-2456 -7618 2191 0
-6970 -1237 -242 0
3026 -8307 -5489 0
6859 -2216 -7862 0
5292 -6436 -5162 0
-2275 2860 9761 0
-6906 -3520 -184 0
-4745 -5454 8821 0
1775 3304 8493 0
-8645 1421 5272 0
8272 4531 9451 0
5483 3539 8149 0
4177 -8086 -4334 0
5934 -2217 -2758 0
5998 -4203 6235 0
-9154 6419 4521 0
1603 -6996 9744 0
4148 1056 -8969 0
-7831 2823 -1628 0
9869 6615 -4263 0
-7370 5308 7071 0
252 -1630 -9821 0
-2930 -6644 6216 0
-3569 -569 7177 0
8019 -9781 -5231 0
7822 -1602 7933 0
6184 -9160 -9123 0
-1883 1566 9136 0
-6293 -5602 6669 0
8359 1653 -3898 0
6470 9433 -4779 0
9270 2447 -2025 0
7281 3800 -677 0
-5183 -2366 877 0
2953 1638 1792 0
8700 6474 -7947 0
-9366 1815 -616 0
5572 -2347 2068 0
2254 -1373 4207 0
8446 3128 -1708 0
4999 5551 5505 0
-6139 -7604 -9496 0
-7851 -3471 -9260 0
-4103 2238 6372 0
6848 3044 9653 0
-8602 9597 9005 0
-822 710 -9540 0
-7032 -1088 -9708 0
-7135 -9935 2002 0
5790 -4439 6800 0
-2553 -4650 -8806 0
-6118 5109 -9295 0
-4513 -8197 -7561 0
-5539 -3857 7457 0
-2690 1533 -4215 0
5404 -3861 8919 0
-9228 -7722 -2979 0
7357 8526 -5500 0
8765 4542 -6369 0
-5045 -2951 4726 0
-6568 -5388 4775 0
662 2723 4685 0
-1102 -1946 9537 0
7823 -7253 3935 0
1980 -8226 -4184 0
9662 2407 -5418 0
-6235 -5406 -9139 0
-3915 3186 4972 0
4956 1833 9538 0
7441 -1429 4800 0
-5705 -9130 3128 0
-2847 3033 -9526 0
-6961 -6189 -367 0
300 -6169 2518 0
-4201 7779 5458 0
7404 5728 3584 0
2919 1966 -1356 0
5923 -5818 -1999 0
-9077 -2732 -2214 0
5312 5934 -8730 0
1833 8117 1083 0
-4941 6361 5676 0
-7394 5434 -1514 0
-3208 -7801 -5178 0
2363 -2542 -4571 0
9046 -1379 2946 0
4059 5600 -2074 0
6683 5397 -4059 0
-302 4554 -9866 0
-8867 -6085 -5201 0
4789 632 503 0
8922 5114 -8622 0
8492 -1929 2180 0
-4513 32 6558 0
-5233 6248 -6045 0
-3322 9158 3329 0
1942 8595 -6197 0
2669 -2966 -2710 0
5713 -319 -9860 0
7767 -13 9933 0
9009 5044 -8050 0
6976 -2204 -1186 0
5709 4527 -6335 0
7470 7529 -3135 0
1674 -7372 5306 0
41 482 8544 0
3478 6958 -6371 0
4859 3652 -2314 0
-2190 9597 -8607 0
-1630 -740 -2186 0
4377 9146 9182 0
629 -1796 3252 0
1476 3065 -8567 0
9769 -1729 6237 0
2456 -8656 -6434 0
3802 7753 5609 0
-4645 -7916 8389 0
8687 4847 459 0
6707 4725 -6121 0
-5343 972 721 0
-52 3643 6869 0
6563 -4497 -2115 0
-9410 5463 -3004 0
5419 -8286 -2249 0
2623 -5638 4248 0
4436 -9718 9815 0
-3031 4540 3083 0
-5480 7491 1808 0
6107 7922 879 0
-1777 -1648 1909 0
9069 -355 7014 0
6053 3056 -3976 0
-3707 -4274 7812 0
9308 2002 9593 0
-6000 -8833 55 0
745 6554 -8319 0
-1248 5982 5454 0
-952 -122 6928 0
-897 -1621 -7671 0
3710 -4595 5280 0
-8273 -9858 4888 0
36 3773 -5119 0
2150 5652 -3805 0
411 -9252 5461 0
-1633 -8712 6151 0
-1424 3995 2227 0
146 -9345 -5452 0
2144 -3372 977 0
6584 -3636 -3890 0
103 -5548 2642 0
-5484 -1240 5232 0
1440 5019 -6147 0
8971 2531 9832 0
-7660 2956 5664 0
4072 9658 -8933 0
-7028 -5731 5532 0
-5596 60 7638 0
-1603 -2490 -465 0
2928 -2662 -3141 0
22 1569 7895 0
1399 5543 -2034 0
-2385 -412 -2824 0
-4452 3017 -904 0
-1713 -9809 -1571 0
7864 -5343 7426 0
6524 -2422 5112 0
4965 710 525 0
6056 -8888 944 0
-2708 762 -3661 0
-671 -9999 3466 0
-2751 -2237 6208 0
-6278 8224 912 0
8614 -8504 -7779 0
-6964 -279 6908 0
-9869 3760 3836 0
-1347 -5507 5745 0
-4831 1087 2710 0
-679 -1955 7232 0
3181 -8656 -1793 0
6861 1513 -1384 0
-976 4771 -3583 0
-1556 2491 -5864 0
-415 -4408 1070 0
-4719 -6342 -8715 0
-8661 3859 7392 0
-4745 9394 7285 0
6996 2030 -4021 0
9639 -8144 2239 0
6775 -82 -2765 0
9425 -9007 7667 0
-7211 -8566 5765 0
4741 2485 8455 0
-5738 2775 4674 0
-3872 2868 665 0
5060 9248 -6549 0
9183 5142 -7491 0
-2116 -7253 6157 0
-1215 -6724 -1791 0
-7749 6864 -9769 0
-4015 -4815 -2043 0
3673 -8892 6510 0
-3091 6258 -7898 0
-5516 2271 76 0
9042 -5170 7117 0
-6256 -692 -4613 0
-8479 2891 9966 0
1061 -2078 -9697 0
-9979 -69 -3435 0
4602 3593 4576 0
7068 -3015 -649 0
-6326 2084 6970 0
8548 4507 4825 0
9352 216 8889 0
6915 543 -1736 0
-9367 4309 7414 0
-9748 3903 7151 0
7702 7803 2508 0
9497 3070 3754 0
-6264 -4755 -839 0
5992 -1078 -5603 0
-4461 2391 7137 0
-177 5562 7645 0
-4774 -1083 -8287 0
565 9452 -3139 0
-4528 -2334 5708 0
5129 -3308 -4192 0
-5627 -4736 -9634 0
-4793 -4940 -1605 0
-4330 1793 -3964 0
332 -7174 9410 0
-8119 -7932 6553 0
7560 -6899 787 0
2468 9864 -1031 0
-3889 -5498 3057 0
-914 -9715 -7352 0
-7938 3360 -2950 0
-2583 7734 -6061 0
5581 -4599 -6508 0
5614 5564 4685 0
-2685 3787 2874 0
6006 5252 -1743 0
-2979 396 -1533 0
-1387 -2955 -9009 0
-6968 338 -7527 0
-8411 -8985 7073 0
385 -1829 -5195 0
5874 8397 9661 0
-68 1879 2438 0
1747 7738 1416 0
5639 -8339 8687 0
-3652 2809 -491 0
654 2948 -5656 0
-9455 3643 -7571 0
4340 5045 -9332 0
1889 7080 7699 0
4966 5060 7012 0
-7074 -2530 -7166 0
-5072 -5832 359 0
-5301 -952 6194 0
-5487 5798 4462 0
-4816 1929 -9262 0
-5962 4367 -4020 0
1873 -9917 -2036 0
7251 5126 7329 0
-710 1506 -6485 0
-694 9961 -5549 0
-9887 3128 -8311 0
-8769 -1378 5275 0
7050 -3390 -1839 0
3302 2999 -8852 0
5133 -7339 7535 0
191 9605 -2415 0
-4510 416 5585 0
-1706 8052 2601 0
-45 8835 3058 0
-8094 8216 -4950 0
6784 -9170 -2653 0
-7373 24 1958 0
-2682 -6725 -509 0
-1207 2500 -6816 0
863 334 -1296 0
8856 271 -5040 0
-2706 -1249 -1671 0
6655 5504 -5042 0
-7029 3401 3707 0
796 7764 466 0
-5859 7673 8216 0
5920 2133 6755 0
-9973 298 -1555 0
-7842 -3030 -5101 0
2805 -4021 -9769 0
-3183 -5629 -4270 0
8749 -3029 7598 0
9881 7805 9264 0
7795 -7140 -655 0
7501 -4363 -9660 0
-6820 -4645 -1429 0
-2724 7306 8834 0
-734 5618 -9121 0
6626 7296 -419 0
-9152 -2604 6677 0
5427 5095 8699 0
-1231 -9603 -9238 0
-4335 -8265 -6107 0
-5417 4005 -790 0
-570 -3683 6678 0
-9373 5933 -5833 0
-7873 1181 -8166 0
9133 -2340 6186 0
6541 1028 -1539 0
-27 -4587 6393 0
1315 -3666 3691 0
9853 7688 4552 0
-6822 3838 8636 0
-8477 -7208 2132 0
7011 2651 -6482 0
9498 -7655 1256 0
7600 -5019 4296 0
-4328 3189 -2140 0
-4642 2621 -3387 0
-2495 -4005 3898 0
609 5763 7347 0
-2508 9608 1912 0
7897 5850 5661 0
339 9155 921 0
-7948 8763 -3623 0
271 3009 -5483 0
-8911 2584 -2208 0
6766 7149 -5427 0
-5360 -5077 -8924 0
8955 -925 -3017 0
7097 9003 9377 0
1376 -5585 6751 0
3246 3418 570 0
3624 2464 4363 0
-971 -8567 4010 0
3775 -8098 -6064 0
-8211 -1948 6738 0
-9649 -9046 5086 0
857 -4758 -2208 0
-2868 3756 -929 0
3882 180 -5911 0
-6732 -6727 -748 0
7297 6030 -2830 0
-9302 -709 1552 0
-2781 7193 -1963 0
-3542 373 -6074 0
2469 4707 4250 0
-8538 -5480 331 0
5910 1169 -7099 0
-9664 -7491 -2113 0
7655 -2431 2068 0
-9359 8694 -1431 0
5486 9970 4452 0
3201 -6027 6478 0
8715 -6372 -6571 0
2578 -8137 -7061 0
8100 -2930 -9349 0
6797 -8816 -1143 0
3532 86 -8702 0
6400 3702 -2892 0
6053 -264 -8014 0
4443 -6298 9892 0
-1522 -8016 -246 0
-9527 6504 1849 0
5931 5691 -6038 0
436 9259 -6639 0
-9900 -9080 -359 0
-3901 7380 -6858 0
-1095 8546 8453 0
-1942 1191 -5815 0
1608 1671 634 0
148 -6560 -6981 0
2992 2 772 0
9971 26 7242 0
5331 7064 4075 0
-9468 2879 -2347 0
8473 9414 -2466 0
5685 -9347 -6823 0
329 -6090 -5217 0
3277 9070 906 0
2100 1937 -6426 0
-1227 -8351 -7526 0
-7491 -90 1980 0
-8029 -1499 -161 0
-202 1584 -2853 0
3890 6962 -6712 0
-100 -1545 -1629 0
7702 3017 3824 0
-1671 2155 7010 0
-2602 -3151 749 0
5560 -8849 -5701 0
-5899 3409 4739 0
252 -1401 -8799 0
5549 -4588 3609 0
-3677 -8078 1491 0
6266 4321 -8540 0
7762 -8074 -6154 0
8784 -7089 -6232 0
7676 138 1414 0
-7634 -2736 7933 0
5395 -1838 -4285 0
8295 2381 8424 0
381 -8565 553 0
7685 -9053 -5699 0
-3970 -5350 5714 0
-3634 879 -7384 0
9066 9928 -4791 0
-3615 3746 8025 0
432 5770 8882 0
5730 4586 8051 0
4330 -3414 5310 0
3300 -6514 280 0
4723 7972 7009 0
-4530 -3606 3198 0
-6680 -9185 3411 0
-6065 -9345 68 0
-9332 -7771 3640 0
-5290 -4334 -9240 0
-8412 2668 -9332 0
3800 7415 -3376 0
2378 -2667 2620 0
-6769 5979 5122 0
2552 572 -4880 0
-2653 -5926 -9876 0
-259 -8513 2304 0
-244 -4153 7663 0
-9022 7627 -4917 0
-9396 6553 2640 0
-4415 -4990 426 0
7326 -2689 -2231 0
9150 4023 6193 0
-1086 2500 9980 0
3363 419 -4574 0
-7775 -598 4362 0
2280 2007 2684 0
-7015 3035 -5992 0
6850 5060 3452 0
7683 9294 5739 0
-5562 6334 -99 0
-6137 -820 -9850 0
5743 8159 -4377 0
4672 -3991 -1936 0
435 -9016 -6361 0
612 9961 -7855 0
4618 -1802 2717 0
4743 -4297 -4687 0
-3028 7900 -9549 0
5384 -9427 115 0
9408 -8434 5420 0
-2887 5336 -957 0
-8799 -8262 -1148 0
-2135 9363 3008 0
5879 -123 564 0
6418 66 -4763 0
8261 -6808 -4754 0
-3814 9491 3076 0
9308 2550 -4362 0
-5040 -4514 1243 0
2662 -4337 2347 0
8702 -2213 -4840 0
6560 1260 4066 0
-7989 -6086 8619 0
9591 7814 4198 0
-5845 6819 4873 0
1374 -569 -3278 0
6876 641 -5186 0
5776 -2111 277 0
7773 -2833 5074 0
4629 1464 9296 0
2181 7385 6141 0
-7944 -1118 767 0
-7947 -5764 -1542 0
6196 5227 -8424 0
255 404 7118 0
1842 -2090 -3322 0
9520 -9177 -4218 0
9496 -773 4096 0
-6797 488 3530 0
-4367 3099 -4190 0
4026 96 4920 0
-5094 -6788 -1671 0
-5598 5626 7133 0
1460 8246 257 0
-8317 -2311 8672 0
8828 -2378 4648 0
2725 -7159 -7490 0
3410 -5143 5876 0
-5663 5635 -9025 0
-9126 1238 -1933 0
-9449 -2792 8471 0
-3007 5563 9089 0
4527 3780 7402 0
6494 9932 -2383 0
348 -5367 2777 0
-9935 6321 9261 0
7406 -139 428 0
4829 3660 -3256 0
-7271 9549 -4368 0
3306 -5084 -6120 0
1348 -4690 8873 0
-4361 -6675 7428 0
6779 -6407 3058 0
-1662 -5606 3845 0
2806 -6666 -4493 0
8014 -7311 -3255 0
9670 -4464 -1120 0
3277 7666 2615 0
-9392 -2991 -4523 0
4755 5269 4618 0
8197 4446 -8035 0
1492 -6801 6050 0
4090 2510 8274 0
3607 6281 -5581 0
-1093 -5425 -9596 0
-1574 4861 4766 0
2942 -2968 -1420 0
9949 -1703 -7079 0
7850 -6746 5908 0
3272 3886 4597 0
5678 872 -1310 0
-4499 7814 -5308 0
-9047 7119 -6752 0
-7865 2545 934 0
2819 -7881 4018 0
8940 9591 -2729 0
-8382 5211 -6299 0
2517 4610 -7004 0
1260 3898 -2820 0
1938 -4996 9346 0
2017 8954 -4969 0
9346 7984 -705 0
2839 1619 2414 0
-273 388 -1642 0
-5721 -8456 3388 0
8087 2790 -2370 0
2284 2664 4930 0
-4020 5335 -7329 0
2114 -7974 -51 0
-5994 -1567 -9285 0
-6799 3644 6722 0
9011 -8143 -5183 0
-1664 3060 -8282 0
342 7219 -385 0
6867 1257 -4311 0
6030 -2487 -8067 0
-4808 7469 -5678 0
-462 946 5015 0
-8493 -277 -9291 0
-5896 8508 -6277 0
-8898 -5110 -5133 0
-6200 273 -6275 0
-5115 7742 -6498 0
3616 -6947 897 0
6423 -7260 -135 0
1286 -8131 5111 0
-8455 -3269 2437 0
-7844 6077 1276 0
-9825 -4105 -916 0
8564 -8971 9129 0
6796 6609 8199 0
3586 -6750 -6697 0
-5658 -1258 -5742 0
9184 3673 -5751 0
5034 9587 -4427 0
932 7139 1695 0
8335 -2227 -7429 0
-4724 5605 3426 0
-6505 5765 -878 0
-4435 -3816 -1244 0
7575 -5296 -5356 0
2399 -9150 2161 0
-5691 6474 2627 0
1586 2707 8576 0
-6904 4559 -7339 0
7076 7106 -8758 0
-9273 6694 8251 0
-1327 -384 -4089 0
-7516 -8193 7795 0
1914 -5544 -6271 0
1629 5481 -7491 0
3876 -7280 -4690 0
1770 1861 3597 0
-1669 -473 -6067 0
6965 -7028 7039 0
7958 6676 6909 0
-7833 8100 7905 0
2088 -865 -61 0
6952 -4927 -5311 0
4573 -4559 2694 0
7759 6391 -4125 0
-6756 -8962 -5292 0
-9352 9966 3842 0
-8534 -1525 -7174 0
-6834 -6285 -9679 0
3027 6465 9664 0
5335 -5418 -7890 0
1972 9420 -1637 0
7366 5039 5506 0
-3797 -6456 3239 0
-6769 -9002 1450 0
-2060 1595 -7911 0
-1958 6549 4662 0
9275 3320 2584 0
-6031 9919 3463 0
8634 -8717 -1331 0
6674 -4632 6576 0
5649 903 -4442 0
2569 5555 -5305 0
-7721 8850 -8442 0
-2580 7709 -540 0
-5142 -1137 -3627 0
972 8655 5789 0
-4759 415 -8512 0
-3526 28 -4787 0
645 6717 8125 0
6746 4385 -3984 0
-4314 5394 3452 0
-3469 -6055 7551 0
-899 773 6401 0
-7442 -6783 9940 0
7713 4986 -5384 0
9678 -260 -1435 0
8265 -3811 9428 0
-6732 3313 4478 0
9575 -6520 840 0
1673 -6278 -9935 0
3532 -8492 2388 0
9446 -4538 -3181 0
6115 -549 -8223 0
-6346 4571 6177 0
5604 2193 2465 0
9440 5825 1938 0
-732 9200 -2428 0
8722 -9425 2874 0
-4815 -8564 -2185 0
-6233 -6642 -103 0
9576 9360 -8015 0
-3091 -6441 -680 0
-5539 -4521 -8795 0
-2945 2139 -4987 0
4973 -4893 -4780 0
-6054 -5955 130 0
2832 -865 8594 0
5096 4545 4997 0
-4842 -6641 2190 0
5586 -2005 503 0
8025 -2824 9125 0
-7106 -85 -9548 0
6934 1652 -7917 0
4121 -6166 -8092 0
2471 4347 3401 0
-9133 118 -9706 0
5614 -6187 -5682 0
-9559 3704 -3235 0
4731 -1303 -72 0
7461 3479 9740 0
-5839 7543 -6680 0
-1880 1351 8841 0
-2177 5386 7020 0
9346 4920 3323 0
3556 -6488 -8924 0
-4678 -8067 -7184 0
454 2068 6494 0
5887 -8900 -2784 0
2681 9169 3986 0
-339 591 -9790 0
5865 -8860 2893 0
-8071 -7557 -4133 0
-1658 -7839 9377 0
-9759 -820 -6956 0
-6485 -3540 -5170 0
4719 7182 1969 0
-8975 -6950 -8776 0
-1251 -3234 -2915 0
1328 -7994 -5023 0
913 7541 -8157 0
-1942 -5517 857 0
-9192 -9250 -1493 0
2008 9752 -4512 0
-1783 -3957 -821 0
-1269 1245 -1128 0
5759 6153 4637 0
2924 -5808 4456 0
251 7390 5173 0
7218 -1533 2251 0
-3165 769 -8152 0
-2574 8806 -4204 0
368 136 8567 0
-6627 833 -7380 0
6191 -302 2664 0
9450 1605 9049 0
-1712 3180 1666 0
-9723 -1037 313 0
-4496 714 -2411 0
3085 -4196 3861 0
183 6812 -9252 0
911 7881 5829 0
-4016 -6876 -7176 0
-3429 660 -1294 0
6800 -6565 -5182 0
-3586 6254 7909 0
-9895 -1619 -2723 0
-4591 9646 5054 0
4849 90 4122 0
-3351 2574 -7043 0
5556 -3016 -7825 0
2463 8310 -1664 0
3073 -5383 4403 0
-4839 -5810 6783 0
4719 -657 3674 0
-9557 -2740 -7378 0
5409 4144 -2057 0
5711 -7685 -5431 0
-1156 -7571 -4861 0
-3137 5508 6173 0
6668 -1426 4255 0
-2763 9728 -445 0
4448 6996 105 0
5736 -8578 -4868 0
-6452 -293 -5195 0
-8601 -9906 -1141 0
-7479 4205 3517 0
-5858 -1116 -5886 0
-1895 4818 -4006 0
-7929 4358 4936 0
9985 7034 2942 0
-582 -5540 -1722 0
-4078 -2230 -4244 0
6004 1003 -5563 0
-5857 2448 803 0
5394 -2254 -7480 0
3474 -9901 9703 0
5844 -3248 3127 0
-2754 -593 -6706 0
1563 -3809 -2382 0
2365 -6276 -6744 0
9342 -6994 2227 0
-957 7709 8368 0
-1993 603 5503 0
-8096 3086 9451 0
-2510 -177 9587 0
-9509 8964 9771 0
7147 5223 -4400 0
-4288 -171 3902 0
3174 3074 960 0
-7255 8102 -3055 0
-2878 -9648 -219 0
9803 -3821 -9339 0
-567 -9323 -5937 0
3587 -1214 6945 0
-4096 -6559 7154 0
-5640 -9540 1200 0
424 -2573 6620 0
-7779 2470 7045 0
-841 7467 3167 0
-2829 -5054 -9823 0
4520 -5888 8833 0
-8859 -777 9528 0
2472 6358 -4916 0
-9129 5980 -3677 0
5270 7170 7676 0
206 -1762 8891 0
2922 -3553 8066 0
9810 3281 -4373 0
-838 8252 -4305 0
4562 -6966 1686 0
-7191 -8441 -8149 0
-3513 -6041 4753 0
-1461 -42 1462 0
-9140 -3482 9944 0
-3438 39 2800 0
8815 -242 5360 0
-1752 441 -557 0
-9128 9014 -7419 0
-9713 1790 -1446 0
6544 7319 -3935 0
3052 1867 1105 0
-6537 -2469 -2928 0
-6757 -7286 -1471 0
2916 -6242 8638 0
-3133 5496 -65 0
-8049 1110 -6752 0
-3216 9786 6114 0
-1975 -6080 1168 0
-8134 8729 -4395 0
1331 -9341 1378 0
5085 -6369 8332 0
3247 7866 -6290 0
3555 -641 237 0
-6493 -5707 -1108 0
6266 -5338 6572 0
-342 8400 7550 0
-3095 -9397 -3605 0
-1605 2216 8872 0
9849 1544 2405 0
-2807 5330 2990 0
-2683 1063 7286 0
2523 -2191 3760 0
186 2127 7318 0
6259 4653 -4278 0
-1203 9320 -2123 0
9446 -5219 -6893 0
9105 -5429 -9909 0
-5371 -8345 -3242 0
1121 -819 -4914 0
-2214 -6994 9754 0
-6245 -5900 6065 0
-1 -6661 -1796 0
-7820 -2046 -3682 0
1391 3476 8524 0
-8888 9427 -4249 0
-9381 -7686 1958 0
-7545 -5478 4727 0
8261 4764 7976 0
7921 4274 9595 0
2233 -5820 955 0
-3108 3354 2408 0
4066 2283 -1331 0
3945 -262 4419 0
-4591 9214 -3952 0
-4425 -1420 4157 0
8325 7765 3249 0
1076 7071 5261 0
9176 -4534 -1593 0
-9403 -4453 -2225 0
-1062 381 2735 0
339 -8152 -809 0
-9470 1308 -4926 0
1694 3873 6817 0
-5612 6529 -3799 0
333 -7682 8124 0
3177 7942 -9758 0
-2991 5575 700 0
-5302 -1106 7665 0
-9142 -228 -3702 0
1604 9760 8123 0
4684 -2795 7821 0
-8936 2836 -505 0
2066 3818 -2969 0
-2204 6210 -9522 0
9492 -7034 348 0
2178 -6305 -271 0
7515 4523 700 0
4348 4171 7457 0
9380 9036 1230 0
5534 -3725 -7273 0
4981 1047 -1002 0
-466 -1409 -8578 0
-202 -9095 -7383 0
-7489 -8000 -1326 0
-1193 -584 3946 0
3105 2337 6888 0
-9142 9534 2209 0
-9338 -1749 226 0
-6279 1173 -1073 0
-3225 495 8824 0
7593 135 5206 0
-7617 4578 9781 0
8978 -4588 -9377 0
-3733 2560 546 0
-687 6303 338 0
7161 -9588 3440 0
6720 8324 9114 0
1230 -1375 -5154 0
4248 -8191 -7095 0
7039 -6203 5262 0
-1388 -9478 -5702 0
-3249 -9149 -5590 0
-8646 682 -5109 0
4949 -4536 -7915 0
2188 1056 1234 0
45 7461 2558 0
-2952 5617 -2390 0
-58 -4149 -2292 0
5850 -5542 8797 0
7269 5742 -6140 0
8751 -4905 -787 0
-6381 -8810 5281 0
-3060 948 3584 0
5705 -8033 5045 0
-5323 5064 -1775 0
1369 4584 8093 0
-2435 -6141 -8004 0
-5812 7131 -5844 0
4684 3516 8233 0
-9478 4245 8089 0
5416 -8198 -7246 0
7515 -6373 7834 0
930 4286 899 0
-6127 -9997 -7207 0
8287 5821 -3445 0
-389 -7869 6799 0
9138 8816 9820 0
-8000 -9291 -4328 0
2086 3109 -8834 0
-3198 1186 -3969 0
-2907 -8823 -9198 0
7301 3329 -9294 0
-7982 -5211 -4307 0
9432 5078 9152 0
-9286 8646 -3736 0
8026 -7253 3725 0
-8427 7073 3026 0
2127 8082 2261 0
5715 7146 -7274 0
9212 -2688 -8764 0
-7113 8632 -5087 0
-2899 -7007 5760 0
-8061 6983 -6790 0
-1991 -2716 4871 0
4954 -1893 -256 0
1063 -7572 -2260 0
2645 5643 9864 0
3081 -2482 -2966 0
-6224 1571 9985 0
3487 -9286 243 0
8624 -7083 -4825 0
1155 -3852 1133 0
-4336 -3106 -6536 0
-8008 -8489 4392 0
-835 3072 3808 0
-9334 -308 4890 0
3104 -4579 -3864 0
-6017 -6164 7430 0
-4263 8976 7634 0
7043 -6722 -1184 0
-3931 5071 6927 0
-5813 -5348 -2947 0
-6574 9386 -6437 0
6525 4588 -4817 0
3789 -8437 6028 0
-5982 1639 -6599 0
6202 2960 -5646 0
8007 -2931 -3825 0
9669 4274 2049 0
8212 3810 -9673 0
2461 8224 7796 0
2580 9101 2768 0
6586 -6181 -1814 0
-6186 -9339 9344 0
-9064 3865 3826 0
-3924 -4461 -5882 0
-82 805 -1310 0
2842 1953 130 0
6674 2826 5787 0
-4944 1811 8243 0
342 1646 -4199 0
-7691 -7840 -375 0
1939 -5962 8304 0
-6396 -6247 3920 0
9306 -695 -6814 0
9947 -333 -4961 0
-955 -855 -7316 0
2615 -8957 -7781 0
-7225 -6002 -7250 0
-883 5508 4219 0
-3585 3202 5005 0
2407 -2096 6171 0
2512 -1860 -1116 0
6669 -6921 1248 0
8410 5228 -8142 0
5908 -2653 6257 0
-6732 1065 3609 0
-1721 1134 -6634 0
2967 2932 901 0
4034 9865 8284 0
-4202 -4640 -6335 0
-9152 5695 -6802 0
-8459 -2690 7310 0
9110 -9115 -2645 0
2118 -8517 -2808 0
6428 -3686 6050 0
-5517 -6544 -4885 0
-6577 -2711 8969 0
2299 6380 -2115 0
-1709 -9260 4893 0
-2070 533 5050 0
-7331 -3320 -2974 0
-635 457 3676 0
-1670 -5460 8293 0
8641 8926 -2336 0
-8074 -3165 4731 0
-6945 -1378 3208 0
9777 6615 -7082 0
7214 -780 5878 0
4868 9282 -8143 0
345 1102 -5667 0
3238 -3005 5006 0
-881 -8093 -8169 0
6776 8637 -6702 0
7582 -4925 -1103 0
-4448 -1872 -2365 0
2429 4628 4071 0
8987 -2016 -7725 0
7271 -7524 6252 0
-6137 -2579 8845 0
8763 459 -690 0
-584 7907 4554 0
-6066 -8296 -3780 0
-9707 5860 5231 0
226 -3767 -8014 0
-8195 -6902 67 0
-5022 3057 1905 0
7664 8481 6917 0
1148 8551 3652 0
-5735 9072 -439 0
-6595 9827 -1271 0
-9223 -8514 3718 0
2479 3243 -6366 0
9585 3092 -1383 0
-8862 4609 2445 0
6347 -6531 -3955 0
-7155 9279 -2817 0
1507 -7451 5689 0
1409 -6357 3908 0
-7830 -8973 -276 0
5166 6691 -3316 0
2076 7679 -1854 0
-25 -351 -7672 0
2414 9703 -5136 0
-4901 -8515 -5029 0
-1345 5008 7102 0
5431 -310 8265 0
-2960 6260 3747 0
-1429 8135 824 0
-932 7362 -1140 0
-2422 -1132 1370 0
6041 -316 -7376 0
-1346 -3803 6359 0
-4045 1987 2559 0
-8111 7606 -9029 0
6227 6439 3881 0
-3566 1424 8698 0
9655 6887 -5264 0
8559 8781 -6210 0
3057 -6593 7184 0
-6740 -7132 6201 0
8513 -6379 -5109 0
5796 3462 3346 0
4528 3584 177 0
-7453 -8284 -5978 0
2928 -2455 -7093 0
7825 -6316 2102 0
9003 -7938 -5091 0
5576 4369 -8610 0
8830 -4398 -4951 0
-8751 -3942 -7155 0
-8289 -1395 1209 0
637 1368 -4570 0
-9019 3284 3791 0
3681 922 9469 0
5910 4915 -6173 0
6593 -6390 6863 0
-8895 2701 -4960 0
6944 3722 -844 0
2594 2797 7591 0
3217 -5936 4871 0
-9896 1523 -5071 0
5455 2586 -1803 0
5419 -1312 770 0
1019 -1930 -9257 0
-368 6595 -3817 0
2796 -2630 -3420 0
-3086 7935 9089 0
433 5126 -3101 0
-3127 -2948 -7348 0
-8359 -1497 1037 0
3951 -8975 -4580 0
6242 185 -5275 0
7923 379 -4650 0
-8171 8876 4671 0
-6319 -6442 -4774 0
-3218 -9680 1693 0
6582 -4071 -8270 0
-4088 3801 -604 0
9955 1309 -9313 0
-8348 -6708 -7491 0
-3324 -4062 950 0
-6901 -3506 4733 0
-9043 6398 -660 0
7384 -1325 -2991 0
3697 3572 -3858 0
394 3743 2538 0
-1149 -346 -6212 0
9059 1169 -1255 0
2259 530 1514 0
-3223 780 5653 0
-4975 -4054 4224 0
1074 355 8435 0
-1761 -9045 -9814 0
-2136 -87 -2930 0
-9227 -9403 -631 0
-8556 -1724 -5736 0
6164 -9643 2661 0
-2193 -4243 -691 0
4480 -9873 -4988 0
3941 3135 -5738 0
7192 -2799 8043 0
6450 3472 5899 0
-7001 8383 4756 0
7005 4701 -3874 0
-1002 4157 -1519 0
3597 -3441 -6236 0
9400 3528 8054 0
7023 -7611 4751 0
-8646 2991 1119 0
-1739 -1412 -85 0
-8197 -2197 3947 0
7225 -1913 -9046 0
519 -3042 8392 0
-9321 3341 -1617 0
-6855 -133 -1745 0
1106 4696 -9519 0
-5064 -9222 -6668 0
-1218 -8164 1374 0
8973 -7161 -3064 0
3246 -542 -8796 0
-8776 -1723 -2307 0
-9668 -7908 -2690 0
-8746 5413 1676 0
-8789 -9803 7953 0
5162 3050 -9303 0
-4099 7819 7844 0
-6695 -2339 7796 0
-1221 -5703 -4202 0
829 6282 7295 0
4150 5854 -2996 0
-639 -9318 3428 0
-2927 -7424 -4075 0
-4905 -5710 7767 0
2025 -9657 -5259 0
9221 -1119 9059 0
1217 5855 -7898 0
-9162 4324 -4665 0
117 2981 293 0
6703 -268 -5794 0
2311 -5535 -3312 0
-9458 4881 9238 0
5930 8232 -4086 0
-6409 41 2925 0
7295 5668 -4699 0
3165 -8641 -2991 0
-4712 9434 -7242 0
-3663 746 -3157 0
5736 6385 -810 0
4564 -9064 6489 0
6686 4299 1202 0
-6902 -7272 2366 0
-730 8353 -9111 0
4424 4856 -8655 0
4489 -9679 3508 0
366 -4001 4920 0
664 7852 -7284 0
5219 2808 6871 0
-5670 -2006 8012 0
4787 8232 -1193 0
7145 8377 -4008 0
9736 9653 -6673 0
5756 -2910 -5308 0
-6843 -7346 -9505 0
2479 -7832 8283 0
-1738 2083 9788 0
7714 9160 -9585 0
-1182 9405 -6246 0
-8845 5560 -2960 0
6679 8167 5144 0
-3947 7551 -7344 0
8451 5427 5252 0
7908 -9383 -9803 0
-9282 -9789 4880 0
-6865 -3396 -1713 0
3733 3880 -8013 0
-7482 -7122 8465 0
1032 -6871 -2913 0
-984 -9695 9278 0
-689 7726 -7575 0
-6583 2511 -7610 0
-936 -9742 -4191 0
7636 1770 -3652 0
5971 -6367 825 0
3723 -725 564 0
9507 -9546 -5789 0
342 -5454 1471 0
-5898 -465 -1508 0
5097 -2448 5283 0
-3290 5640 4094 0
2507 -2023 -9627 0
6430 -8180 4520 0
-9969 -6754 6851 0
-214 -8051 -823 0
5599 -1571 7153 0
-9644 -7643 3856 0
8783 5192 -6573 0
6896 6981 -9716 0
-7788 8716 7217 0
9123 3916 -1700 0
-4500 5434 -6698 0
8420 8105 -9851 0
-9256 4339 -8484 0
8348 -3980 -4998 0
2503 4162 -9726 0
-8394 -6457 -688 0
-6924 8269 6614 0
-7573 7435 -6420 0
1249 -8749 2493 0
5162 689 -3343 0
-1791 7464 -7655 0
-8494 9392 7559 0
7791 126 5726 0
7728 9358 1697 0
-3980 4748 7496 0
4329 3199 -1748 0
-7007 329 8357 0
344 5624 7531 0
9090 9820 -623 0
-4064 -1096 -3250 0
7553 -8396 -7988 0
-6015 -5389 9835 0
5500 602 -9826 0
-3245 2106 -4997 0
8853 938 -1081 0
-3598 8443 -8185 0
8734 -7757 -4033 0
9701 3970 -6533 0
2170 -3877 -5125 0
-7967 1873 -5898 0
6745 -8195 7990 0
196 -8196 -8055 0
1291 2714 5388 0
7108 3127 578 0
-9604 -81 4674 0
-2460 -4580 2410 0
2583 3187 -5754 0
7470 3197 -4289 0
73 6050 -4192 0
-3907 -6164 6485 0
-497 -8458 -2700 0
8191 5305 -9672 0
-8218 3885 3063 0
-8370 9507 4315 0
760 -3294 -8792 0
-9016 -8098 -3158 0
3911 6708 8844 0
9297 -9202 8452 0
8843 -2047 -6896 0
2745 -1953 -6879 0
-8807 343 6619 0
-1170 -4369 7174 0
8349 7982 -7318 0
626 -6902 1007 0
6863 -1804 -4785 0
-2026 3469 -327 0
-7685 5905 8223 0
-6885 1198 1925 0
-2268 -9246 -2421 0
-4101 -571 -8514 0
-248 -5865 822 0
9600 -2925 -2663 0
-7908 -6915 873 0
-1449 5574 9730 0
-4084 3279 6928 0
-6431 5847 8998 0
3318 5861 -5353 0
-253 9405 3963 0
-5782 -3754 4912 0
-7791 -9473 7477 0
4482 2537 8156 0
-7968 5602 3408 0
-7184 5843 144 0
-4836 -3744 -394 0
-1587 3494 8711 0
-8339 4068 -8388 0
613 -3630 9854 0
-2927 1808 1053 0
-926 -6384 -5668 0
-3179 2475 3015 0
-6990 4657 6773 0
3899 8307 729 0
-3081 -4300 6864 0
542 -3593 -223 0
5042 8617 6485 0
36 1377 -6587 0
-4113 -9042 -5377 0
4337 -138 -3880 0
-313 592 -2590 0
-795 -6081 -9584 0
-4346 -5834 7683 0
-5973 -8636 298 0
-7736 -3217 6514 0
-222 1831 -9296 0
-160 6877 2280 0
-6435 1814 4799 0
-1589 3874 5339 0
510 9332 9040 0
-8600 -3311 2859 0
5904 2219 7272 0
4701 3532 -2337 0
-2046 -8003 8698 0
-1668 7228 -8514 0
6663 -2045 -2374 0
1150 -7643 -5075 0
-2155 8434 4912 0
3554 9095 -6966 0
8134 -6117 -3954 0
-6413 -5283 -1376 0
-7491 4238 -7544 0
-424 9469 423 0
8158 4234 8666 0
-3898 -9884 2166 0
-7392 8027 -6777 0
1028 -9628 -1904 0
7066 -3884 4520 0
-6688 -7173 5537 0
-6521 8977 6484 0
6729 9937 -4063 0
9071 5080 -4300 0
-4213 2193 6693 0
-4107 -6073 -7345 0
6124 3604 -5046 0
8466 1086 9041 0
-6988 6251 -6636 0
693 -1588 2027 0
5960 8761 -4476 0
4325 -7481 -2630 0
9096 9671 1143 0
-1442 8243 5365 0
9918 -4443 -5707 0
-6628 -7397 1679 0
3412 4494 -9741 0
3375 781 9861 0
-6589 -1679 -6045 0
-9200 -9829 940 0
-6869 3881 9959 0
-5159 6780 1761 0
-1043 -8627 2249 0
-6273 5332 229 0
7365 -9416 -5447 0
655 -7131 -5329 0
9085 -3465 -3362 0
4085 3944 1841 0
-2048 -7630 4000 0
-3625 -8851 -1569 0
956 -8745 1067 0
5033 -684 5788 0
-790 8153 -253 0
-2627 -9210 -1437 0
1769 -2193 314 0
740 -7476 2053 0
7858 -9507 -4918 0
4995 -3036 -6638 0
2751 2207 -3598 0
4520 8738 -8408 0
5068 9909 -3537 0
7231 -7081 -7620 0
3275 2806 -8518 0
-8594 -9348 -3674 0
-5941 2033 -5272 0
-2687 6312 2051 0
-496 -8522 7237 0
-2676 9502 -549 0
9647 7666 -1614 0
-3743 -4468 -2571 0
-6471 7351 -2427 0
6485 7324 -517 0
-617 -9160 4451 0
-9941 -7926 -3345 0
6473 -465 7468 0
-2943 4056 7543 0
-4642 4828 -858 0
-4926 -4227 -7976 0
-1615 4924 8123 0
-5272 6351 -6667 0
4073 -3695 -652 0
6135 6558 2316 0
-9306 -6274 -6009 0
-2054 5248 242 0
7196 -8464 -3967 0
3440 -5873 7721 0
-8568 7091 -711 0
2571 -4818 -6540 0
8759 2684 -1870 0
520 1710 9815 0
-2433 8685 9466 0
2833 2669 -739 0
-1677 1476 -8789 0
1854 3245 143 0
7696 2710 6224 0
-291 -8848 -5430 0
3044 7478 1581 0
6937 6062 -80 0
-9463 3724 -5275 0
7356 8326 6541 0
-9100 -8093 2682 0
1895 -262 -7945 0
3218 -2971 -9507 0
2445 4464 -924 0
-4251 6919 -4344 0
3366 -5019 -266 0
-3363 -9744 -9196 0
-5795 -6429 2633 0
-1497 -5421 -9109 0
-4600 -9914 5170 0
2342 1364 -6991 0
-3935 43 -77 0
1147 3909 9371 0
9089 -8219 -6472 0
-2439 3338 -1515 0
9912 3911 8293 0
-4408 -4710 9642 0
-3892 -4837 1791 0
5950 6613 -3466 0
-9992 -78 -2179 0
-5213 2414 -3986 0
547 -8678 -9651 0
9182 -3975 -5105 0
9638 7241 -6624 0
-4925 -2060 -160 0
-7193 1742 1463 0
-3481 8665 8407 0
8867 -6099 -8081 0
5311 -1880 -9305 0
9585 -9080 8666 0
7907 -6163 -4277 0
8663 8665 9734 0
2837 3505 7844 0
-4609 -8090 1691 0
-4778 1924 -7985 0
-2815 5204 -8562 0
5493 -5880 6849 0
-5638 2537 -9582 0
-1838 -9997 9927 0
-1833 6667 5396 0
-613 7151 2672 0
-8195 986 8530 0
5090 5890 -5460 0
-2668 -3957 4193 0
4398 3606 4185 0
-3491 -4790 9441 0
974 -2256 -2948 0
8935 -5093 450 0
-8842 -2092 8316 0
-9154 3101 -7343 0
2367 6087 -3436 0
-9859 3814 -2046 0
3532 1381 6780 0
8985 2965 -917 0
-8384 7230 9469 0
5514 -7652 9067 0
-3400 9034 8387 0
-8877 -3846 -9512 0
7666 -3877 -425 0
5649 8643 -5580 0
7474 -9426 -4211 0
-5762 4005 -1502 0
1755 419 -7099 0
7937 -1440 8572 0
-5304 -7196 -8549 0
9452 7960 -8291 0
7519 -96 5289 0
3924 -7677 -7978 0
-4433 -6125 8801 0
-8642 -8974 -6823 0
4113 -6945 -2374 0
-1428 5746 4402 0
-8048 -3676 8213 0
1419 4371 1502 0
-966 -4549 9375 0
-4465 3543 8497 0
6924 -7060 4772 0
-8745 -8692 8063 0
-9728 -2500 -9696 0
6903 -7701 -6475 0
3951 -6641 9534 0
-6457 -208 8150 0
2579 9421 5058 0
-8570 -5052 -7368 0
-466 -4449 -6981 0
5895 -4986 -860 0
3486 283 319 0
2142 7166 2894 0
6672 -5121 3902 0
5109 7104 9632 0
9777 -4191 -9719 0
7510 2628 -7588 0
1166 -721 -5184 0
7285 -6632 -2417 0
-9783 5290 6146 0
-4665 -8813 1275 0
8379 -4170 6916 0
1654 8078 5230 0
-3829 -4472 4678 0
-5592 -6588 7837 0
8421 -6351 -9654 0
-536 -5910 4555 0
-8103 -3447 -9364 0
6170 -743 9284 0
-123 -3090 -3153 0
-8312 -6029 3609 0
-9794 7486 -1977 0
6831 -2603 5762 0
1793 7181 7114 0
56 -9072 4872 0
3809 7218 -2367 0
6766 1587 9633 0
752 8282 3026 0
-2008 8977 1626 0
-5726 1378 6783 0
7726 9665 4688 0
1376 1005 -2186 0
759 8234 -2899 0
-834 1159 1592 0
7150 5503 2026 0
-9815 6334 -5049 0
3748 4789 5636 0
-4699 -9892 3349 0
-8364 1371 -9186 0
2292 3167 4667 0
1496 9505 8908 0
2318 -5773 3446 0
9390 -7858 -4016 0
-8577 4622 5521 0
-7010 8015 -8538 0
-9285 -9184 7791 0
-528 4138 -2913 0
4472 -1559 307 0
-1839 4642 -1119 0
6387 -2295 -5788 0
-9826 688 -7359 0
2460 -8620 9388 0
6303 5216 -2918 0
449 -6085 -9527 0
3795 322 -5503 0
1923 -2823 1387 0
1409 -8912 -5079 0
6599 -9693 -6710 0
-5871 -4156 -7989 0
-292 1425 810 0
4768 -5149 -7278 0
-4267 -5437 -7380 0
2443 -2644 5940 0
-310 -5687 617 0
-7300 3830 -6702 0
-8912 -4975 2075 0
8636 9783 2874 0
1184 -9645 -9850 0
-9347 2517 -132 0
6817 6114 -9374 0
-3957 -9754 -5568 0
-6184 -1074 6669 0
-5867 -3516 -3640 0
-1746 -3291 -3123 0
8259 3108 1844 0
-6496 -9776 -6243 0
-5932 6152 -7718 0
-9424 -668 -8766 0
7310 8636 -1396 0
-3804 9168 3589 0
-2245 4029 -3970 0
5569 -6103 6907 0
-5653 -2456 -2447 0
8613 -3539 1204 0
-2962 8462 1104 0
9241 -5454 -9741 0
-5762 -8084 5274 0
-2079 163 -4267 0
-6067 5575 3020 0
8668 -6980 3130 0
865 -6935 6686 0
-2361 7879 6230 0
6030 -6712 -1368 0
8743 3297 9747 0
4396 -787 7057 0
1630 4428 -6641 0
-9809 -6985 -7255 0
-6762 -8621 -7498 0
-457 4737 -8678 0
329 -6673 4140 0
1362 -4467 -5088 0
3070 4440 -5073 0
-1701 -7888 -1149 0
-4848 1952 8709 0
-8382 -2882 9075 0
3261 -9399 8962 0
-299 -2680 9895 0
787 9505 -507 0
-1806 9136 6519 0
-9870 -7748 8219 0
8081 8367 9507 0
6599 1754 -2403 0
9733 -7495 2040 0
3134 8376 -8950 0
-7710 9790 -5523 0
3890 -1279 -8095 0
4939 2192 -8768 0
-9977 -927 6273 0
-293 -7362 7423 0
-6828 -2685 -1635 0
5 2329 4536 0
9856 1148 8779 0
-1152 2215 4388 0
-154 5918 9141 0
6633 -9665 8352 0
-5608 -7253 4677 0
3536 4806 -9518 0
-4210 4805 7431 0
4222 4048 -4875 0
5025 8077 555 0
-8154 7766 6410 0
-9183 -6094 -2157 0
-6674 -6834 5194 0
-6029 -1023 5719 0
-2941 -687 8020 0
9485 -596 4515 0
-4015 -4939 -4207 0
-605 -6202 -2915 0
-6932 7196 6282 0
8862 -9185 -3743 0
-4939 4282 -1503 0
-1247 -2523 -4636 0
-3271 8426 -9773 0
-8016 4605 -4307 0
-7513 2982 9670 0
-7307 -345 -6826 0
-6515 404 -6082 0
5555 8532 5261 0
-3331 8078 9119 0
4680 4614 7983 0
-9433 -1382 7739 0
1214 -16 -6207 0
-5415 -254 3098 0
-2495 6608 466 0
-6090 -7378 -9924 0
9110 2889 1035 0
-8056 7072 8677 0
270 6170 -8715 0
2618 -9845 -8262 0
-4401 -5456 331 0
1605 -7718 -789 0
-4321 9821 9862 0
-3413 -431 -2021 0
-5064 1708 -9099 0
-6054 -8903 -5780 0
4043 -2998 7454 0
6219 7273 2935 0
7643 4472 -3628 0
9898 6528 6068 0
8317 -9923 9777 0
2084 -8011 -2759 0
5444 7790 -1694 0
8251 9321 -4926 0
-9168 6531 4599 0
-8865 3779 4404 0
-6405 -6676 -9099 0
4234 -7959 1013 0
7029 4174 -7765 0
-4600 4498 -9229 0
6148 -788 5431 0
-3497 45 -2072 0
5439 1912 4237 0
3396 9932 -7313 0
-3704 -6722 8418 0
-6694 4074 9879 0
-2476 -8501 6032 0
-7089 6691 -9209 0
-7574 1685 -8100 0
-52 -4716 7123 0
-4380 -6953 -8438 0
-2736 5470 -7917 0
-8821 -7848 -7093 0
4216 -8071 -1237 0
4905 8846 1282 0
5726 2682 -1930 0
-34 2882 2742 0
-6606 -7849 3082 0
770 -7866 -3230 0
-9861 5482 2382 0
4733 9042 -515 0
-3112 -6726 2375 0
-9776 9435 5663 0
3700 -6196 -7620 0
775 -682 -1217 0
9964 -4950 -6384 0
3966 7896 7561 0
2480 -1729 -1548 0
5506 -178 -1561 0
-8553 -7874 5929 0
9324 -264 8317 0
-4533 4182 -3390 0
8943 2117 -7432 0
9991 5570 -9656 0
-636 -5428 5600 0
6295 3835 2597 0
-3267 6786 7851 0
2058 7599 3313 0
-9287 3846 -7636 0
-5490 -8521 6750 0
3613 -5549 -3698 0
-1407 512 3640 0
-8987 1400 -8692 0
3464 -8491 -3097 0
-3458 -1224 -9095 0
-8354 -5364 -9310 0
-6038 -8303 837 0
7412 -3584 -2196 0
5255 -9749 -4615 0
-6693 4248 254 0
4664 -2547 -6387 0
-959 -3556 -810 0
1296 -6368 -7878 0
-8787 6986 -4542 0
6858 3447 2428 0
7061 -3625 9745 0
8281 3324 -8010 0
8185 8872 -9525 0
568 9161 7991 0
4625 6662 -9345 0
2730 -9620 -3781 0
4650 -8224 3092 0
-8614 -2180 -2374 0
318 -3402 -211 0
9727 5871 6675 0
7090 -4455 -7196 0
-9450 5560 8555 0
5325 -2245 -8670 0
-2785 1498 3334 0
-1155 -3663 6320 0
-502 2148 -6718 0
6587 828 5454 0
8493 -2092 -4831 0
943 -1434 7956 0
4144 6463 5646 0
-8430 -9473 -4902 0
263 5406 5209 0
-9424 3137 -5622 0
6833 4772 7850 0
6976 -9059 -2995 0
2184 -3736 -9417 0
5175 -2259 2847 0
7714 -4730 -6729 0
-6332 -2579 -6847 0
5630 -6165 -8027 0
-1650 -761 -8941 0
-6477 6718 -9104 0
3062 -4529 -5242 0
-4904 3319 -6653 0
5718 -397 -809 0
716 -4294 -2942 0
-8395 -4036 -2187 0
-2608 -8570 2577 0
2865 7890 3344 0
-8676 -3151 1212 0
-8076 1801 8185 0
-18 3878 -7983 0
-4021 -7864 1826 0
-8309 -4012 3332 0
7032 -4923 -9956 0
2545 -7622 9037 0
-812 -6344 -774 0
-494 -5750 -9483 0
9753 -1950 5317 0
8068 -2941 2943 0
-4284 -1095 -2480 0
-740 2947 -2287 0
8408 1646 -8555 0
-1557 1919 -6278 0
7456 9378 7249 0
8211 -6242 785 0
7286 -2617 -2540 0
-1195 -7054 -6984 0
9094 7969 3502 0
-3069 6986 3477 0
8572 5707 -2028 0
-1991 7543 273 0
4685 4086 -8108 0
5677 5944 -7472 0
-8666 77 2934 0
-3767 -8005 1619 0
2947 -9349 8608 0
-1822 -7866 9813 0
2881 -42 -5644 0
-4117 -6532 -7172 0
2547 -3145 -6374 0
-7428 8065 815 0
433 -729 9812 0
-8927 -4319 9380 0
7526 -8740 8890 0
-2369 -5941 4355 0
-3183 785 2558 0
-9020 -6965 -7261 0
-1416 -842 6853 0
-2784 3603 -3007 0
8090 -3409 -4842 0
5469 3534 4479 0
30 8624 996 0
-8672 -8808 -9985 0
5568 -6540 5981 0
3718 855 -1035 0
1746 734 8822 0
-4394 -1053 -6792 0
-4143 3869 -962 0
5996 -202 2194 0
6002 2061 3735 0
6207 -9207 4927 0
4851 5877 4472 0
-3032 -3200 -1269 0
3910 9336 9246 0
-5339 8955 7204 0
-4599 6725 -5910 0
447 1154 2372 0
-3360 6727 9354 0
-6572 2000 354 0
-4774 -5521 -3677 0
-4844 108 8909 0
-4232 2268 1580 0
-3614 2541 5846 0
-8538 4798 -8351 0
1088 -7956 7712 0
2160 -2159 -4354 0
2244 -2906 3220 0
-4169 -206 428 0
-707 -8147 881 0
-1315 7958 5284 0
-9896 -4971 2188 0
2345 3469 -9782 0
-6942 -7028 128 0
-3359 289 -9181 0
699 8594 -1190 0
-7157 7531 -2641 0
8524 159 8836 0
-7319 -5015 1234 0
8453 -7299 -4008 0
706 811 8638 0
-706 4954 -3889 0
-7438 7826 3287 0
9904 -9731 8000 0
2788 -6465 -7167 0
-5501 8986 132 0
-2300 -9042 2748 0
-6962 7889 2573 0
-628 -6020 8434 0
-2758 8637 -8170 0
2486 6216 7438 0
-4808 958 -6915 0
4046 1625 3518 0
9781 4704 -3099 0
-1457 1455 7717 0
7949 4348 -4500 0
3902 -3414 8813 0
1002 1868 9376 0
3084 -24 -5695 0
180 5240 -9572 0
-5628 785 7192 0
2378 6265 6189 0
-7304 5711 2977 0
1981 1410 -545 0
-8780 -1994 -284 0
-9141 861 -4830 0
-7656 -8907 -4418 0
-6106 -8965 7593 0
8233 3461 -8689 0
9042 -7827 -4767 0
556 4272 8308 0
-1218 6234 -1250 0
-5009 8385 -9415 0
1038 -9337 7966 0
1886 -1677 7267 0
4113 -5730 -4785 0
-8953 1597 8596 0
-8024 7610 2998 0
-5658 5273 -9812 0
-9191 7976 6015 0
-480 -9767 6338 0
-7237 5618 -757 0
8242 9893 -6161 0
-1652 -7595 3862 0
3327 -2498 774 0
-3582 8166 9948 0
9171 -5015 7097 0
-3246 7021 8675 0
-8914 246 -6117 0
5745 2339 1527 0
4858 -8608 302 0
-3588 7171 -1434 0
-4645 5081 7090 0
-1727 5517 -907 0
2282 2590 411 0
118 -535 1051 0
-7579 -9468 5516 0
-2252 5008 1850 0
9481 4924 -2463 0
5665 3559 -4793 0
-3516 3779 9203 0
2843 -9303 3357 0
-2524 -1840 6508 0
5420 8858 -264 0
9683 -7109 9897 0
4590 5977 -7741 0
-233 8678 2915 0
8749 8 8616 0
1474 -9055 2673 0
6345 -768 5436 0
-8839 -5331 -8124 0
5955 2059 -6641 0
8365 -2215 -5637 0
8357 6389 9726 0
-9517 -162 -8969 0
-4532 2047 -5743 0
8296 4262 8208 0
-2992 1408 982 0
-2907 1965 5163 0
-3280 949 -5708 0
307 138 9373 0
-3318 9790 -5574 0
-7748 8521 -9756 0
8319 -674 5931 0
-3582 -6693 -1407 0
-8924 -7535 3466 0
-1212 6923 -9879 0
4050 -54 1405 0
4412 7912 -5831 0
8116 -2554 -7152 0
5947 -921 -1528 0
448 -9496 4018 0
5473 9661 4243 0
-8610 -651 -6949 0
578 -8183 5057 0
659 -5380 1445 0
-5011 -5125 3974 0
-5578 -238 7021 0
-8563 2746 -2451 0
-8595 1370 -9644 0
-1226 5802 -9077 0
-8319 -8374 -8092 0
-345 -3412 -1114 0
7088 -2848 7242 0
4531 1076 6343 0
2480 3316 -263 0
-2267 -8652 1608 0
3522 -5813 -4980 0
-2392 -7456 4653 0
5946 -6441 -7434 0
4125 9926 1675 0
-6002 -7864 1276 0
-6675 1821 5530 0
-560 2149 -5791 0
5561 -6650 -215 0
3452 3362 -7830 0
-1903 2954 -5426 0
9874 -7598 -1510 0
-4274 3360 9636 0
5920 -5675 -1051 0
-2206 -5117 -7869 0
-6300 -4858 -8687 0
-9906 5654 -1141 0
-6024 -7196 -8482 0
2917 5871 15 0
9943 6796 3637 0
-6379 -1034 6663 0
8266 -2866 6678 0
-4058 4014 2778 0
-8208 -6206 9823 0
-8759 -4688 -8921 0
7286 4702 -5054 0
7352 25 1307 0
-339 4778 -2650 0
1285 -8607 -356 0
-1727 -1428 5810 0
-8289 -1190 -6752 0
-7818 6494 -348 0
-7889 318 -3788 0
7260 -4465 -9940 0
1272 -7839 1135 0
-5387 -9458 1523 0
-7931 -7076 -782 0
3992 -5677 -1039 0
8854 1055 -6915 0
1604 7126 -6174 0
-7672 -2813 -4171 0
8544 -8097 -7791 0
-3027 -8928 -1483 0
8919 -7691 -1316 0
-6584 -9429 -3654 0
-7323 -1886 -5832 0
5639 9070 8382 0
-9946 1853 -3031 0
6075 1314 3577 0
-8678 814 -5864 0
-2633 2566 7575 0
-2025 -3411 -5902 0
-2884 -7474 -5792 0
884 1689 4362 0
-550 -9512 4604 0
9370 5485 5280 0
-9223 5680 -2364 0
-6212 2567 -9915 0
-4493 990 -7321 0
-379 -3962 -6425 0
1187 7103 -9235 0
8150 -357 4286 0
7912 2698 -5837 0
-8774 9083 -9247 0
-3967 -5163 -8164 0
3834 7382 7182 0
3197 -9944 -4033 0
-5793 -6735 1783 0
8620 -1435 3531 0
4346 8618 7351 0
-8661 -8615 8889 0
5070 9441 2828 0
5253 4104 1307 0
7286 739 8231 0
978 -9641 4046 0
5265 2303 -7505 0
-2295 -15 6831 0
-2636 -7027 -8226 0
-3406 -7127 9572 0
35 -8545 9438 0
-2223 3441 9963 0
6835 5254 -7442 0
9266 87 3705 0
8108 -3877 5979 0
-307 -915 9666 0
4874 -3678 7889 0
-408 782 -3722 0
-5694 5128 343 0
589 5362 -8062 0
848 -7648 -6976 0
-596 3817 2237 0
7162 -5078 840 0
-7731 -7482 3842 0
2843 -5184 692 0
-5724 -3470 -2257 0
-8654 -6692 -7677 0
-4649 -2579 -9047 0
-8628 -2882 5578 0
1007 959 4296 0
5272 -3535 1804 0
8753 3643 -7 0
-1467 7207 4703 0
7100 1453 -3948 0
7465 8188 -3333 0
5445 -2130 -9356 0
-1543 -3787 1491 0
2530 -7906 -3573 0
-5853 -2075 2922 0
647 -9690 336 0
-3646 2720 9022 0
-7028 -3655 -9161 0
-8070 4201 9331 0
-6866 -2379 2562 0
4329 -6444 -862 0
-6712 -5020 -1779 0
-3443 -104 -3973 0
-1270 -9658 2814 0
-9241 1608 -8209 0
-120 -3741 5937 0
-2178 -134 -8119 0
5049 -6207 1718 0
-3378 9418 7653 0
8405 -5285 -3513 0
4736 -8315 -8226 0
3474 -9012 -9391 0
-6785 -634 9973 0
2354 -5054 -5249 0
4564 2809 -5609 0
7151 4863 424 0
8460 -5698 -2529 0
-3812 -5427 -4580 0
3720 -1509 7831 0
5920 3066 -4018 0
9958 -4076 766 0
4106 7635 -6392 0
4786 -2688 -1327 0
-4727 3993 1538 0
5840 9544 43 0
5134 6622 -7314 0
8928 -747 -1537 0
-2397 -1955 -5352 0
-6619 -8094 -3356 0
-7889 -8277 7111 0
-1929 5749 -140 0
-4887 7502 -8773 0
-8514 -305 9363 0
-5522 6257 1395 0
3982 3058 -3953 0
-3300 -3664 5475 0
2882 -617 -4446 0
1221 6954 -58 0
-2426 -2168 -8493 0
-7160 4473 5642 0
-269 -144 -2468 0
-1602 1277 -4466 0
379 -5536 -8286 0
1796 4456 -754 0
-8507 -4419 -4113 0
-8639 7412 5612 0
-2848 -2884 -5433 0
4555 2613 -5064 0
3622 2024 2761 0
-778 -3324 1390 0
9771 -9704 -4239 0
7165 956 -953 0
4477 8426 -487 0
5616 -9412 2723 0
2239 -2967 2592 0
7692 -1602 -6549 0
-356 -6145 -8608 0
4788 8392 -4277 0
1424 -1072 -3176 0
2240 -6179 2919 0
-3362 -3547 4440 0
-5764 -9131 3916 0
-1577 3175 2661 0
8167 -2297 -6849 0
-5439 -671 3768 0
1165 -2234 -2236 0
1815 9011 -9311 0
-1231 5888 -3250 0
-6956 2337 -6945 0
-7149 -5012 6481 0
2299 -7021 -1456 0
2818 -845 9546 0
-9377 -6318 350 0
-470 6493 -809 0
-1043 -2168 9711 0
-7188 -127 -7076 0
-403 -6194 4499 0
-6273 -6033 -927 0
-437 1717 -9360 0
-1286 -9186 670 0
3145 -5704 -1802 0
4349 -3916 -7166 0
-254 3910 -1830 0
6190 -2435 2852 0
7595 8321 -9766 0
-8103 632 -3638 0
-258 -9039 -9422 0
364 -200 9295 0
-1229 6228 -7715 0
1277 -938 5664 0
4397 -6850 9735 0
-13 -8108 4675 0
1420 3254 7946 0
-9331 -728 7588 0
7135 -4699 -6791 0
3849 1475 -7607 0
8263 -1325 -1525 0
-876 -2569 7093 0
6067 7635 -8032 0
-8368 -8276 -1758 0
-4319 8405 -1597 0
-7472 -6051 -5859 0
-5133 2855 9983 0
6886 -4910 539 0
8438 777 -4994 0
8582 2596 -3283 0
-3373 -6848 1074 0
6634 -1205 -3811 0
-8962 -9295 3893 0
-4466 -5685 -2629 0
-4695 4400 3789 0
-7978 6084 878 0
-5574 9192 5699 0
7615 -9704 2143 0
9046 9915 -4369 0
3310 6324 269 0
-2156 -6141 -5134 0
9387 -1205 -7744 0
4376 9237 9953 0
2628 8079 7080 0
4313 7127 -5558 0
6321 -3394 9385 0
-4617 9796 -5379 0
-7856 233 -7273 0
8005 9722 -2398 0
-133 -8072 9797 0
9919 -5442 3317 0
-6649 -781 7962 0
2690 5841 9044 0
5592 7674 3396 0
4825 7518 -4710 0
6666 -1373 9796 0
-9716 6542 -991 0
1219 -1666 9220 0
2974 3626 -5179 0
-1260 8541 -9893 0
-6908 837 4195 0
9391 -9811 -2209 0
-1272 -2336 1145 0
4131 5719 -3946 0
9695 8854 -1898 0
2138 -297 9559 0
-2956 2793 -3466 0
3545 -2082 9888 0
-874 6876 -4409 0
9895 -5899 1887 0
-9750 -7496 6080 0
-6456 -7347 3639 0
8492 6635 -8620 0
-981 4950 2824 0
107 -2279 -8680 0
-910 -5825 6194 0
-8994 8585 -8363 0
-4772 3136 -2731 0
-2883 3087 2524 0
-8557 -870 6984 0
6681 6881 -513 0
-979 -5511 3354 0
3185 7628 6359 0
-6731 5192 -4371 0
-4805 7630 -1184 0
-6104 9109 -8333 0
9660 -6512 8001 0
6067 7602 3884 0
4870 -6817 7108 0
6869 -1725 1148 0
-8717 6865 2066 0
-3847 -961 -5311 0
2167 -4716 -2528 0
2683 -9330 4020 0
5752 -8963 8774 0
479 -7753 -6861 0
-6675 -6659 -1373 0
8119 6757 5053 0
-9909 5613 -2497 0
-7188 2395 -793 0
-8385 9170 -8667 0
-7331 -2255 -9816 0
6386 9123 6965 0
-947 -4033 -6909 0
-5179 292 7449 0
6304 -2853 -6148 0
-5628 -9337 3931 0
-2522 -6121 8015 0
7592 6454 -4259 0
-9425 2706 -6850 0
-2222 1083 5869 0
-9764 -4184 -7870 0
318 2816 3685 0
-7038 -7097 7376 0
-6470 -6546 -3843 0
-4224 -4355 7246 0
-787 153 5919 0
3683 -8740 -9428 0
8259 4622 6980 0
-6905 -6343 -3756 0
7126 -4218 -6527 0
-2437 -2832 -7248 0
-180 7728 -9502 0
-7691 -7340 2365 0
-6506 4729 8617 0
821 4619 -4394 0
-6438 3054 3952 0
-6526 4190 -5685 0
-11 -5802 -9340 0
-6090 -7139 4385 0
-9398 -3599 7826 0
-263 5327 8334 0
9930 -7078 -950 0
-381 -2616 -6808 0
2787 8721 1866 0
3136 -4002 -6153 0
796 4094 1844 0
390 -6247 5075 0
9247 7091 6497 0
4779 -341 -5155 0
-511 7808 -5390 0
-8439 -3822 -6293 0
-3559 6663 9596 0
2495 -2390 9049 0
-9238 1280 8582 0
-4366 3587 2453 0
1375 6741 5627 0
108 -1189 8821 0
-5129 2359 -7103 0
5505 -6073 -5329 0
-7579 1557 7913 0
-8138 8358 7445 0
-3024 -9581 560 0
-287 4181 3668 0
-2043 1824 -5655 0
-5083 -9495 -6735 0
6143 8404 -7435 0
508 1608 7683 0
2749 6048 8227 0
-2127 -8774 -9367 0
3807 8268 807 0
-6762 1784 4209 0
3172 7098 7749 0
-4947 -3164 3049 0
2467 -3904 3177 0
-3775 2214 -6257 0
9006 -7877 687 0
2207 -1453 8754 0
-8355 7800 2565 0
1623 -3849 -4972 0
8626 428 -8063 0
-1340 6607 2484 0
8473 1607 844 0
-3096 -5932 -712 0
-8386 -3730 -2834 0
9195 -5382 -9774 0
-3822 -1165 -1777 0
-1073 -1281 -6334 0
1410 7710 -7957 0
137 8225 -7553 0
3403 7213 -3202 0
-6197 4559 -7834 0
9671 6705 -2239 0
743 -1134 -9609 0
-5204 8897 4006 0
-7901 5019 1314 0
8492 9145 -7821 0
3467 -8443 -5571 0
-7644 -7984 -2183 0
-1000 -264 -3286 0
9989 1110 4623 0
2773 2794 6555 0
-6827 4423 9879 0
-582 -2897 7320 0
9451 8684 5280 0
1930 3891 4355 0
9538 -5808 -7432 0
-5486 2273 8687 0
9701 2784 5470 0
2026 5860 4257 0
9131 -468 2121 0
-5698 -1783 -4973 0
7356 -6687 9732 0
8179 -4875 5947 0
-9229 9795 4521 0
-3869 -6525 -461 0
6436 -2583 693 0
2631 -7247 6352 0
-3572 9584 -4153 0
8328 -4111 567 0
5867 -4211 8300 0
1623 -7254 -1137 0
-4435 4760 1878 0
7734 -8625 8798 0
7142 -6564 -2002 0
2332 6149 -2186 0
7981 -2564 6969 0
-630 -2485 6583 0
-9067 8612 -4144 0
-6034 606 -7765 0
9065 8976 6747 0
8737 131 9486 0
-9334 3368 4816 0
-4446 3993 -49 0
-7469 6673 4560 0
7267 -6797 2837 0
1873 3689 6758 0
-6225 -2565 4495 0
-544 9676 -2283 0
8309 1923 -6925 0
7403 1989 -28 0
2996 -8300 4340 0
7679 4573 9693 0
-7788 4301 718 0
1174 -9667 5532 0
7268 9971 9182 0
-7740 1486 -5125 0
-1855 -1547 6499 0
-6086 717 -2072 0
-5734 -65 -9933 0
825 -2165 -1549 0
6158 -8038 -9145 0
-4327 -2869 5532 0
7745 8076 1177 0
-3226 9516 6098 0
4862 -2185 7896 0
2164 -6760 -2387 0
5694 9490 966 0
4558 7544 -6752 0
7560 569 -7911 0
134 -2563 3447 0
-531 2980 -5868 0
-8830 -7749 -5021 0
-2790 8014 -870 0
4072 8380 -5663 0
-9234 322 -6432 0
-4707 -1450 -6709 0
-6271 -8114 -4507 0
-5991 63 3725 0
867 -8543 -733 0
-7198 4210 -5677 0
-2457 -1986 5296 0
9735 297 3164 0
-4814 -7069 -9541 0
8899 2610 1437 0
-8392 -1088 558 0
1094 -1968 7462 0
3328 -8633 -8624 0
9922 -3519 8992 0
-6302 -3388 -3225 0
-9226 5459 4353 0
-4602 -1623 -1188 0
-4314 554 -5750 0
-8824 3375 2303 0
9242 2356 -5016 0
-6998 5434 -9668 0
-8984 -2190 9354 0
-7824 1632 -4036 0
6680 -9216 -9650 0
-5658 9093 -894 0
8591 2235 -8935 0
7609 832 3891 0
7254 -3588 -9131 0
8751 4007 -9201 0
-3229 -767 -6349 0
3229 -9701 -2173 0
8517 7825 4625 0
-4164 -1648 4434 0
-1329 523 -7302 0
-5226 2942 -9487 0
24 1537 -5621 0
7994 4757 2488 0
-4808 4410 -247 0
1322 -6834 2923 0
-875 -420 4929 0
-5014 -6300 5755 0
-2170 6636 4589 0
-8847 829 9945 0
9000 -7520 -4768 0
5594 1358 -4825 0
750 3480 -5938 0
-5200 -1364 171 0
3601 -1854 5059 0
9123 -4436 -7677 0
-8365 -4647 -2437 0
-6322 -7552 -1788 0
2881 2014 4775 0
3228 -6380 -6307 0
-9922 4654 -4401 0
-5115 7632 -6901 0
7650 6441 -1171 0
-3184 -5248 1837 0
1766 -4894 62 0
9732 -4100 2056 0
3026 -2941 720 0
3579 -8780 -8216 0
-8340 3023 -9177 0
6844 5777 -245 0
-8437 -8130 -6042 0
6128 -3151 1900 0
6088 2448 -1523 0
9109 6138 4561 0
2786 1546 8236 0
-4244 -9662 3379 0
-8237 8099 1341 0
-3842 3586 2518 0
9726 85 -5111 0
-4589 4361 -4200 0
4141 -4760 -6337 0
5506 4258 6078 0
6735 8017 -173 0
2185 -9709 1674 0
1549 -1823 8881 0
-9368 -9930 3755 0
4336 3829 -2127 0
-1438 -212 9903 0
-4511 1694 7061 0
-5682 -4926 5359 0
-2270 -7124 -7496 0
-5559 -1790 -4512 0
-3394 -1940 -7298 0
-3883 7516 529 0
5838 4929 5 0
2722 8496 -6270 0
-8043 5775 5758 0
2074 -9341 -4243 0
9609 4683 -9631 0
7045 -551 7140 0
-1134 7476 133 0
-9262 2651 9654 0
-3775 6870 -2985 0
-944 -3367 9802 0
2433 -5204 1883 0
27 -4407 3289 0
2688 7050 7494 0
7628 -4882 -6151 0
-8276 -2400 673 0
-9980 6044 -1511 0
7381 6076 7641 0
-4745 -3110 -4023 0
-1207 1236 -4669 0
-6785 -7176 8640 0
-2568 -9314 -8296 0
-9643 3626 3441 0
4703 -2522 -7855 0
-7491 -2872 -396 0
5820 -2792 -7750 0
-7737 4306 8566 0
1012 1212 -6383 0
8328 -6664 2106 0
1126 -4666 6153 0
-7330 9561 -3545 0
7932 1306 -1770 0
-9116 -4801 4975 0
-1142 9866 790 0
4567 -9962 1464 0
-553 9463 5532 0
-109 -5566 4042 0
7202 -5750 8723 0
697 1001 -6428 0
-6928 9901 7040 0
-1042 -9789 2519 0
-5399 -5817 -1764 0
917 9486 -4167 0
6164 -4635 -1571 0
8210 962 3836 0
8173 7340 6976 0
-9324 6956 -1060 0
-4658 -9635 -6672 0
4502 5419 -6359 0
-5854 2502 -6068 0
-5545 -3576 -5186 0
-8651 -3224 -5640 0
-8789 7738 -316 0
-3002 3804 4205 0
-5624 -597 4261 0
-6170 4239 -3638 0
-8593 1099 2617 0
3361 -9032 -951 0
-6194 -2357 -9323 0
-5015 -8721 343 0
3289 -968 1259 0
-8541 5582 -4685 0
7174 -6430 -1261 0
7039 -4571 5977 0
-6517 2445 -4169 0
-2486 -4976 5281 0
-171 -4699 -1912 0
-9821 -8189 -1625 0
-7567 7063 9104 0
6897 -7396 -7306 0
-2047 -2339 3056 0
7585 -4007 5843 0
-9273 -3826 -6184 0
-5598 -235 7764 0
-2534 -1570 3734 0
7192 -6934 7954 0
-6239 5080 6944 0
3268 8564 2297 0
-2444 -9974 6651 0
-7983 9911 8958 0
-3977 -6735 -9287 0
-3347 -5122 2788 0
-2995 5485 2315 0
4574 -3428 -6883 0
-4380 -3135 -9855 0
914 -8480 -5235 0
7722 -7612 8487 0
-5178 -2478 3698 0
-5742 4983 8037 0
-3661 3351 8548 0
6289 -5919 -8256 0
-648 -7505 4920 0
-6850 -4969 -7860 0
-7040 -5329 -1491 0
1105 8356 5751 0
-6909 -7862 -6257 0
-56 5667 -438 0
4145 -1463 5317 0
8783 -6647 -8432 0
137 6452 -7938 0
-4 5022 -7764 0
-2702 -2450 7587 0
-6535 5963 -7778 0
3165 8648 -2815 0
3948 -6999 -7490 0
232 -1766 -3552 0
-1276 3495 8345 0
-6974 -332 6379 0
-1964 7540 8673 0
-8245 -2503 111 0
2360 -5072 6862 0
6527 5857 4091 0
8236 9784 292 0
-3932 1817 -5149 0
-3542 8945 -6909 0
8297 -9975 2839 0
-1720 -9272 -6529 0
3719 -9629 -169 0
-3555 3735 7805 0
1219 6604 -490 0
4057 8848 -5457 0
5283 8964 -7230 0
-4038 -6150 -9038 0
-8858 -3495 -9900 0
-7108 -9849 -3818 0
921 -391 -173 0
-4972 -9324 -680 0
7902 -8795 -7984 0
-5026 -2422 -4574 0
-2353 4854 -5031 0
-5151 1539 -4500 0
-948 -7189 -7306 0
-2850 4493 -9103 0
-119 8821 -1891 0
-9207 3135 -1681 0
-9288 -1789 -6778 0
-381 5927 -3034 0
-3801 -7669 4065 0
4513 -9563 8180 0
-1381 8599 6624 0
-9010 -2951 5477 0
-5288 -9872 47 0
8340 5868 -4805 0
5216 6994 -516 0
-8190 2177 -6044 0
1775 34 -8770 0
-9584 -9045 7344 0
-6883 -7651 -1715 0
944 -6899 -3874 0
-4798 2288 7726 0
-3224 -6500 8819 0
6986 -499 1649 0
-4977 -4382 -7412 0
-1405 8892 -9018 0
4299 -8920 -890 0
-54 9800 -5546 0
-1041 -4800 9993 0
-7825 6064 2345 0
-2734 3586 -598 0
3182 3133 4006 0
-43 4152 9249 0
7097 -7103 8030 0
110 7827 4119 0
-9845 -1467 -7927 0
-5830 5516 -1494 0
-2349 -5521 -9120 0
1628 580 6719 0
-7289 6911 7832 0
-3104 196 -1631 0
8951 -3994 8338 0
8951 3804 8207 0
2032 6038 -2585 0
-8132 277 -8120 0
863 3389 5837 0
-9219 4140 4488 0
192 -4330 5906 0
2124 9421 -2938 0
6264 5516 8104 0
-909 -9148 3064 0
-6400 -2238 7696 0
-8866 2589 3925 0
-6839 -7182 3446 0
5353 7013 9860 0
-5975 2051 3709 0
8072 -4825 -5614 0
9661 -6395 7832 0
-7528 4111 93 0
-579 -4833 2820 0
-7029 -3919 5632 0
638 7179 -5446 0
-3720 5884 1503 0
-3685 -4926 9644 0
5495 9383 2888 0
-1236 4842 -5872 0
7523 3956 8558 0
5187 18 4874 0
-8495 7356 -2453 0
3548 7091 -3153 0
-6843 8492 -796 0
-6227 -3334 3159 0
-8424 -7927 -316 0
-3694 -1055 804 0
-9227 -2305 -8412 0
8794 -228 -6136 0
6243 4954 -511 0
-91 -8415 -5285 0
-350 -1028 157 0
-8793 -8187 2714 0
-5504 -145 4130 0
-7801 -2728 -2042 0
-4723 3737 208 0
-7451 370 3205 0
-1287 1343 756 0
1477 5707 -2958 0
-8027 4895 341 0
-5251 9760 2962 0
3724 8237 1955 0
-4992 -1782 -2644 0
2278 9953 3933 0
-7212 -6863 1827 0
5152 5285 9254 0
-9802 2816 -4794 0
-5875 4423 1285 0
4820 -7403 -7274 0
-6489 8564 8804 0
-7827 -573 -380 0
8599 -8445 -8878 0
-7588 -3405 9413 0
4241 8670 -7648 0
-8907 -1995 7955 0
617 1447 -6135 0
8362 9982 6272 0
3452 6744 6493 0
-4110 7262 2406 0
-9649 9104 4421 0
-6741 -7207 5807 0
4380 -622 9276 0
-8196 919 5731 0
-606 469 2580 0
1030 -1632 1431 0
6100 -7762 -5995 0
-5910 7871 5044 0
6922 9145 4024 0
8333 -4387 7695 0
5801 -9729 950 0
4351 -9609 8529 0
-5806 7054 59 0
1607 5355 2125 0
-5350 -4315 -8353 0
-9044 2238 2715 0
-5340 3489 7038 0
-6485 1298 5480 0
-1403 -6308 -9374 0
3372 3347 -6610 0
2079 2740 -4637 0
-6561 -8300 6770 0
-2305 8373 -493 0
4931 5549 3442 0
5472 3815 -1334 0
-3764 9307 -5197 0
6778 -9715 4846 0
1761 -9803 7757 0
4499 2059 2114 0
2751 612 -7802 0
-697 -7705 -3853 0
4229 4876 -7348 0
1537 -3033 3865 0
7065 8358 -68 0
-3 9542 5225 0
-3463 514 1394 0
-5024 -9576 -1960 0
2798 -6149 5124 0
6632 4909 -2845 0
-5310 -7713 -2763 0
6612 -8684 -6390 0
-5330 -6927 -8149 0
7420 5941 8074 0
6234 9895 -7909 0
7719 -8944 4175 0
4142 -5625 6779 0
-3989 6493 4236 0
4678 -1689 -8305 0
9148 -1148 6251 0
-6752 9035 -8476 0
-2362 4088 -4312 0
-1773 -2970 -2722 0
7372 -5848 -7443 0
-5878 3655 3433 0
8882 -1986 6390 0
8415 -1389 167 0
7452 6958 4592 0
-1642 -608 5936 0
-9398 -8171 3615 0
-6179 -715 2652 0
-1545 9093 -9987 0
1138 641 5096 0
-7871 4584 -7780 0
97 3219 -4178 0
2469 -6010 -3544 0
-7942 4012 -2893 0
2058 1283 7683 0
3106 -7915 -5784 0
2853 -9150 1377 0
-4967 7603 327 0
-863 7323 -4564 0
2113 8712 -5220 0
5143 -1635 9007 0
9523 -1635 -8321 0
5504 -4187 9046 0
9030 -6970 5603 0
-8646 8747 4185 0
3891 2747 -7629 0
-2401 3687 -9684 0
-6532 6611 2031 0
9071 1597 -3698 0
-575 5818 -8635 0
5946 5081 1510 0
-2766 -4077 -1916 0
6972 2914 -1672 0
-1398 5027 501 0
-6426 -9209 5482 0
-5904 -8266 9195 0
4446 1931 -5393 0
4915 -6248 -5192 0
-5214 -1578 4488 0
-8711 1258 -543 0
5296 6852 -9322 0
-7819 8653 -7658 0
-4901 -7449 9377 0
-6159 -8678 -4461 0
-5348 -2006 -9777 0
-5405 -5287 2130 0
2644 -8467 -7450 0
1994 -4455 6602 0
7430 -5508 -8362 0
-1484 2221 664 0
-7316 -870 -5301 0
-5519 398 -1746 0
-2777 -6210 -8836 0
-6122 -3250 -1198 0
-3495 4584 -2750 0
-1916 8211 -2844 0
-1794 1602 2523 0
3784 -7557 2165 0
2845 3306 -8160 0
-5118 1580 6296 0
2489 5746 4350 0
5344 5499 4840 0
3664 2818 -801 0
655 4671 -6653 0
-2703 -4171 -1841 0
5658 -4138 831 0
4350 3052 -5004 0
-5680 3671 3845 0
-8383 -765 -552 0
2501 -1522 3855 0
7080 -1403 -1932 0
-3224 845 -7124 0
7385 9331 5418 0
-8189 -2624 -904 0
-7656 -6024 -6437 0
-6651 -9865 4340 0
6142 2985 7266 0
8888 8068 8903 0
-1842 -7057 9126 0
-9791 8439 6888 0
4629 -3960 2490 0
-1076 -7006 7516 0
-4324 5285 -7039 0
-6467 1123 7662 0
329 5827 -324 0
1944 -1253 -5697 0
-3063 6050 6563 0
-8263 6201 1181 0
8345 1004 7837 0
943 5456 9883 0
-4087 -7344 -947 0
9993 5041 -4847 0
9081 6220 -5798 0
-6720 -1018 -427 0
-5498 -6889 2876 0
-9409 -9290 -3630 0
-2219 2773 3401 0
3193 -1792 -5347 0
-5677 4994 1323 0
-7767 -2072 1900 0
-729 8189 3190 0
-5626 -6182 -136 0
-413 -3115 -143 0
-1548 -3999 9984 0
-5505 -445 -5539 0
5726 -229 -2435 0
-1200 4714 4034 0
-9139 -8908 -844 0
-1136 -9909 -5114 0
-2643 4998 3954 0
1883 -3624 -459 0
-8219 -7603 -1542 0
-1003 -629 2470 0
-5089 -3772 6178 0
-1890 -4545 9676 0
9520 9698 2160 0
-2582 -9815 5351 0
-1697 754 -3331 0
-8488 -2996 -4654 0
-1253 3582 8833 0
-9937 -2481 -6866 0
5689 -6908 -9746 0
1207 -3812 -33 0
5616 -667 6369 0
1332 -1880 2996 0
6843 209 3636 0
-3650 9411 6549 0
7866 -5055 9346 0
2440 -384 -6419 0
9391 811 9586 0
4126 783 9680 0
1786 1494 1030 0
-4255 -7309 5729 0
4524 7141 -7760 0
1034 1570 -3748 0
-2034 8768 8680 0
-2080 3674 9171 0
-2519 -4860 -6369 0
4418 7489 -8781 0
8588 3489 -7532 0
-5519 8169 8826 0
-9465 4022 -5107 0
-4791 -1718 659 0
6724 -8255 -379 0
3528 8627 7544 0
5747 822 8853 0
1438 -3101 -8030 0
-9446 4059 -2645 0
3902 -2498 8809 0
6344 8128 -3888 0
-1797 7481 -811 0
-8493 9173 3082 0
2470 3050 2638 0
502 4346 -9457 0
3943 2375 7856 0
-3634 -8234 8601 0
4688 5549 -7352 0
3637 -2894 1301 0
3476 9513 9182 0
-179 -6857 -2718 0
-5141 -4524 -5873 0
418 -5754 752 0
8328 4428 -483 0
5054 -1232 9714 0
3429 -5620 3348 0
9268 -1235 6246 0
503 2569 -5694 0
6423 833 -5729 0
-1703 -6501 2280 0
-9949 2834 3694 0
4517 327 5250 0
-6925 -9019 -9551 0
-4532 -2676 -1190 0
5312 7088 -2741 0
7976 -4289 547 0
3888 9036 9311 0
4775 -2609 -3826 0
4160 -5087 -954 0
-1582 -3718 3532 0
1503 8113 8351 0
9796 878 4719 0
2816 3875 2562 0
6733 4765 -8814 0
-14 1430 -1571 0
-3913 129 -7606 0
-5741 7548 1715 0
9231 2683 -8240 0
-5736 94 9648 0
-4960 721 4427 0
-6924 613 -548 0
-766 -5922 -3643 0
7379 1818 -1168 0
3464 -3388 -9689 0
-9400 4728 9200 0
6935 6521 -4381 0
-9052 -8078 -1498 0
-3448 -7914 2631 0
-2011 985 -6615 0
-2397 -45 741 0
-9609 -6454 -2496 0
-1157 6583 -9636 0
5047 5895 8003 0
4519 352 3397 0
7626 3183 1924 0
-3066 9870 -7005 0
-4115 -3520 1853 0
-2729 -2063 8570 0
-7812 6572 -650 0
-4200 -7217 9561 0
8392 7430 3556 0
1176 3016 -1905 0
-3318 -2807 -5475 0
-4609 -3784 4131 0
-4196 -236 8635 0
4344 -4526 7837 0
-5247 4655 -7030 0
6456 1471 -9182 0
-4725 -3316 553 0
3685 -2364 -8972 0
-6883 7659 236 0
3078 -9797 -6943 0
-6688 -5601 -2116 0
7620 -5280 6133 0
6645 7694 3506 0
-7220 8400 1039 0
9967 9355 -7254 0
-3239 -5327 8539 0
-7342 4920 -7206 0
-1199 -9745 9630 0
-4520 3804 -1871 0
-7592 4095 -2856 0
-1112 -4496 -1662 0
-8746 -7832 1764 0
-6743 -9953 3333 0
-4233 -2550 -5948 0
-2542 -838 -7544 0
6669 -208 8321 0
643 9172 7983 0
8111 -6232 7579 0
7745 88 -7992 0
5257 -4048 8824 0
2425 -1064 3598 0
-7392 -6913 -3074 0
5340 7624 2625 0
7392 -9708 -9992 0
-9343 -1778 -2940 0
-8222 5366 9824 0
9230 -3035 802 0
-2198 -3237 8412 0
-8175 1341 5516 0
5682 600 -681 0
9757 -1865 -1409 0
3202 8338 9883 0
-4692 -6296 5040 0
-8035 3028 -3391 0
3083 4094 728 0
2120 -9196 5456 0
6338 -5287 767 0
-9261 -557 -8777 0
-5483 -6215 5903 0
-8961 633 -3502 0
6697 -1388 -5212 0
4483 -1894 8624 0
4483 -9129 -6723 0
1032 9359 -2009 0
-6346 8517 8005 0
-2460 8346 3810 0
7539 427 8347 0
8281 1493 3478 0
-5703 2374 567 0
316 2020 5516 0
-1073 2564 -6671 0
7766 -5162 4191 0
7090 9993 5868 0
-6468 -1909 -7 0
5947 -4112 8327 0
-1573 -2844 102 0
-6686 8524 7174 0
7155 -1890 493 0
296 4879 4599 0
-9479 -9778 9032 0
-2998 -7357 -3650 0
7926 8467 -7622 0
-5673 2033 571 0
7472 6116 3226 0
-6547 3255 -964 0
2312 -9224 -2797 0
-5020 6765 9994 0
-2568 1741 -4517 0
8977 9436 8783 0
-9502 -6604 6979 0
-2713 8255 -9531 0
3757 1885 1341 0
-4354 5445 8827 0
-8594 664 -7589 0
6789 3556 -1141 0
-9923 5276 -1366 0
7351 -7181 -1493 0
1526 -8756 1561 0
9063 -5758 2995 0
3921 -9569 -1986 0
1015 -526 -7916 0
-9001 1851 -5353 0
-7585 -5294 7036 0
-498 4336 -7546 0
-1508 -8315 5607 0
-4238 -6142 -2144 0
1500 -3672 -5094 0
-5188 3478 9365 0
1399 8214 6483 0
1981 3514 5167 0
-3600 5552 185 0
2012 4520 6645 0
676 -8901 -5750 0
5957 -9844 -5338 0
4304 6298 -9576 0
5307 8443 -8144 0
-5727 -8154 -8453 0
8526 -9974 8758 0
-1757 475 -8299 0
-4713 9243 -5387 0
-9115 2889 -1211 0
-7796 -6675 9769 0
-3592 4015 8557 0
3233 3583 -1054 0
235 9959 -3716 0
1260 -9846 6479 0
-5951 5336 774 0
9118 -1643 -5979 0
7735 5803 -3264 0
-2907 -6077 6308 0
-4162 -3199 4739 0
-5661 -4902 4741 0
-6529 1422 3530 0
-3109 1002 -2326 0
741 31 8085 0
4726 -6855 -5082 0
5028 6246 4958 0
261 -6678 4678 0
-8230 -7514 -6794 0
-2268 2350 3469 0
7785 476 315 0
-7831 4911 -2537 0
3885 -5193 4590 0
4617 1606 147 0
8956 -7997 2323 0
4528 5288 4773 0
8828 9284 5443 0
-9603 -462 9529 0
-5090 3016 -143 0
-504 -2240 3664 0
-4944 -7439 -4201 0
8226 6808 478 0
7162 -2754 -3567 0
3437 3261 -629 0
5955 -5104 -1460 0
-3597 9586 -1389 0
-8099 3829 -8750 0
4323 -5707 1498 0
-4244 -3139 -8844 0
8735 -3352 9868 0
-5521 5094 5746 0
-4677 7985 579 0
-5721 -4147 9673 0
-3788 -5502 -1672 0
-3053 -1665 -9817 0
2185 -3907 -8306 0
-878 -5662 2337 0
-4281 5080 -5102 0
-2085 9005 -4110 0
5453 -2575 -9629 0
4244 -4480 -4764 0
294 2577 4221 0
8621 -446 6415 0
-3545 9007 9948 0
-8985 872 9578 0
3831 -337 4236 0
3154 -2578 -1226 0
-1659 1103 -9038 0
-5769 9409 1554 0
7373 -514 5444 0
-9072 8246 -5264 0
-7603 4930 -7826 0
-5674 2918 3951 0
-2398 -7458 -528 0
6650 395 7641 0
275 -5026 29 0
-197 1287 1059 0
2542 8368 -7789 0
893 -692 1161 0
-4739 -2553 5059 0
-2449 1408 3894 0
-6663 -1151 324 0
1068 -2898 -8201 0
8016 714 5062 0
946 623 -7882 0
-2633 7133 9390 0
3400 -3268 7334 0
-4238 -4621 6072 0
3466 3531 3693 0
3380 5018 8705 0
6491 -6485 -4267 0
1991 977 -5421 0
-3050 -5247 -9951 0
-1274 7151 2450 0
-9622 2644 -4350 0
-8206 2536 1804 0
-9796 -505 9133 0
3283 8091 7136 0
9522 3619 -8187 0
-4904 -3406 7808 0
-2754 9105 -1155 0
1115 1582 -3397 0
5660 1172 6244 0
5369 -3919 8081 0
315 8601 -3834 0
-1969 6120 984 0
-6948 6741 3262 0
4561 -9725 -4039 0
2044 4001 -9865 0
-7904 2279 5864 0
-915 1363 -9538 0
-4639 9429 701 0
-6257 -9258 -6002 0
9687 6943 3084 0
9533 941 1086 0
2462 -3788 7378 0
2776 -5329 -4536 0
-1237 -356 -3146 0
-5355 -799 3588 0
803 -410 -2629 0
4431 -5387 -8009 0
5752 -8090 59 0
-5472 3272 5503 0
-1993 3986 2372 0
8069 -5565 7426 0
8793 -3938 9704 0
-6642 -3031 6552 0
-6752 -5557 3657 0
7038 -6548 -4590 0
-1281 3459 -4996 0
-6906 7978 3059 0
-1070 -6024 -6439 0
-9033 -7978 7909 0
2939 7977 -2497 0
-9271 1296 -8612 0
1358 -6801 977 0
-5667 5996 -9177 0
9323 7030 -3620 0
7388 9422 6265 0
-251 5363 -1578 0
-3701 -7546 5743 0
7782 -4521 -8566 0
-2051 -8636 -257 0
5911 -3073 8899 0
6029 3231 4934 0
-8022 718 -2247 0
150 -9960 9194 0
2282 4425 6685 0
-8100 423 -986 0
-3228 -3989 -965 0
-8188 6112 4120 0
-9539 6776 -267 0
-4854 9195 -9789 0
2910 -2207 -4741 0
7712 -1321 -1796 0
252 6924 8808 0
-8084 1218 -2151 0
-168 4552 -3912 0
1849 8208 1020 0
-1073 -56 5793 0
-512 -9541 -2444 0
6186 4358 -8453 0
-7090 -8380 -8648 0
8551 -8726 -4449 0
9444 4757 542 0
-3185 -8360 6342 0
54 -2070 6981 0
-3421 104 685 0
-7226 9477 -596 0
-9472 -3270 -1328 0
9640 -2279 134 0
1217 3057 -5457 0
7705 7023 -5219 0
-3293 8003 9593 0
6167 -7603 8597 0
8083 6673 257 0
-1291 -5410 1636 0
-8641 -5382 5549 0
2232 3116 2428 0
-1747 -7231 -9754 0
-3895 1415 3915 0
-6177 8984 -8643 0
-3853 -6632 -5892 0
3140 8144 -1820 0
-230 5823 7058 0
6715 -7251 -5365 0
-6042 -9651 -6863 0
-9886 9446 -2047 0
-9376 -3744 9702 0
-2769 -946 1251 0
-5354 6809 7516 0
-1933 -9809 947 0
4918 -3270 8073 0
7697 -7969 8555 0
-2615 1546 -3990 0
-4022 2338 7488 0
-6039 6041 -7838 0
-6637 -688 6556 0
-760 -8488 4784 0
-9382 -9665 9072 0
3315 -6709 -2805 0
-1944 8263 -5620 0
9710 -2740 251 0
8093 -6580 -6698 0
6787 -9533 -1633 0
-9893 -4995 -6386 0
-5099 5508 -3590 0
-6552 4489 -7999 0
6067 6475 3340 0
2650 -7731 7129 0
-5128 892 -1752 0
-4766 4303 -7685 0
-2656 -5275 -7804 0
5274 8190 3290 0
-3934 -8848 -1201 0
-2758 -576 4493 0
3788 3890 -2314 0
5649 -1217 -751 0
529 -2556 5124 0
3312 -4187 1184 0
9566 -2278 4379 0
-2959 -3419 7483 0
-3752 5253 -832 0
-1132 -6829 -5347 0
8705 -8778 -4782 0
4665 7511 -735 0
1197 -644 -8437 0
-4739 5868 -7046 0
2265 -7255 4328 0
2078 2065 -9047 0
-77 -2766 -7992 0
931 7116 6777 0
1336 987 -7864 0
253 1216 -9753 0
-1005 -6121 -1439 0
5090 -2317 2365 0
4604 5841 -6806 0
-6497 4064 9912 0
-8073 1528 -6947 0
1966 -9473 -60 0
-9552 -3783 9845 0
1344 -1288 5387 0
-6098 9133 2264 0
-2461 1373 -1771 0
7044 -8345 -1902 0
-1054 2538 430 0
-5732 -405 -4288 0
-385 2194 -4235 0
-9498 -6234 -4381 0
-8158 -6749 -9821 0
2710 -9498 -5949 0
-9429 -9381 6253 0
279 -4497 2466 0
-8875 5210 -9979 0
6019 4671 3897 0
-6401 -4535 -1215 0
5466 -2079 -4477 0
-1454 -7538 4297 0
-6766 2881 -5995 0
-4177 1249 -928 0
-3649 7487 -2243 0
365 -6932 928 0
1509 -4179 -8924 0
4945 1860 -4025 0
3316 -9174 715 0
-2070 4410 -3526 0
-1302 -8883 -9929 0
-870 -3031 -773 0
3577 5561 -6784 0
2378 -3915 -3311 0
-8296 -1081 -7701 0
-5323 4063 -2221 0
4806 2680 -8339 0
8782 8067 2906 0
-6292 8222 -996 0
-9398 -2401 -4005 0
-8848 -259 -7409 0
3829 -2088 -5451 0
-422 5257 1149 0
-6505 9107 3399 0
5403 5226 8445 0
-6258 4409 9673 0
-7620 -1957 -6661 0
-9362 -1014 -5084 0
-5412 -2566 1880 0
-268 -7559 4493 0
6798 6606 -5181 0
-9727 7983 -8463 0
5224 4533 -357 0
6472 7370 5500 0
-5075 7338 1419 0
256 5387 2083 0
-9941 -3346 -5541 0
-2834 -3063 5811 0
5380 6934 -2301 0
6048 7060 567 0
1057 -9445 6845 0
-1902 7453 -1602 0
-8982 2608 -6040 0
378 9009 3086 0
-7029 4467 1933 0
-2410 1930 -2048 0
-7351 -2713 5516 0
-6700 8109 9409 0
-7098 -1797 -5782 0
4810 7745 4033 0
-4567 5264 2419 0
-9430 7143 9223 0
8490 9823 6061 0
-5001 3638 7519 0
-5307 1830 5105 0
807 67 -8931 0
-3831 -8493 2258 0
8419 -9588 -7663 0
-5926 -4801 5385 0
3329 7181 6645 0
-6413 -8494 9629 0
-6982 1550 -6799 0
-1844 -4828 7093 0
-6513 4007 -7295 0
4242 2763 -8182 0
1877 2113 717 0
3955 6098 -9114 0
8600 2579 -1316 0
-2870 1868 -7156 0
-5838 -3290 6857 0
-9163 -2620 1221 0
1223 1852 -4582 0
1765 6573 -5816 0
-6323 5972 -4162 0
5241 5298 -9309 0
-32 9789 6252 0
8486 -654 6555 0
95 1668 -6891 0
-794 -3844 4779 0
-9212 3568 2720 0
-7592 8814 792 0
5709 4798 5339 0
-2940 7519 -6904 0
-1743 4947 8412 0
8536 -4547 1837 0
-5826 -7356 1703 0
-841 -640 3368 0
-1563 4117 2413 0
-7018 -8421 -1867 0
-1337 -4952 4137 0
7715 3841 -7620 0
-7170 6703 -2673 0
-2672 236 -1008 0
6671 8020 1141 0
7503 -1718 -5679 0
8650 -3863 -6592 0
-7411 -8765 5460 0
6 -3390 4194 0
4208 -6264 -1572 0
-5872 -7912 -1117 0
6934 -7081 -8120 0
-3171 3640 -3405 0
1543 -8997 -5466 0
2140 -6949 -6324 0
-8148 -6521 -2175 0
7849 8631 6810 0
-5307 -5685 -383 0
-3249 -9474 -8101 0
-4732 -4319 2330 0
5789 5306 -1279 0
-7052 2916 -3188 0
-5691 -662 4263 0
-5590 735 -4307 0
1567 6508 -7780 0
-5790 9979 8140 0
9090 -8483 -1998 0
6017 -4749 6636 0
-9047 -2648 7388 0
4160 1990 -1740 0
4971 -5073 7591 0
-1769 4831 3544 0
-2299 -8043 -9503 0
7781 -6535 948 0
-4693 3183 -5548 0
375 8128 9515 0
-7931 -101 5246 0
1306 1945 -5432 0
-2052 -7609 1806 0
-5057 -1151 4846 0
2058 4338 -109 0
7779 8821 4453 0
-9295 5142 -540 0
3329 -140 -3869 0
-5518 3436 -1299 0
4706 -1451 -9473 0
964 9817 -197 0
-7746 9290 -2881 0
-6321 -5125 5944 0
7143 6457 6932 0
2046 -5068 -698 0
-21 3613 -2851 0
8950 6555 -7946 0
-5444 9125 -7043 0
4640 -6260 1861 0
6338 -3932 359 0
-1664 -9676 -8198 0
-6035 5884 -2786 0
-5360 4841 2426 0
9070 -244 -790 0
-3686 9960 -9182 0
8098 -874 -6166 0
-1280 8307 2519 0
668 -6709 -7775 0
-3451 316 1123 0
-4596 -8383 -4117 0
358 -4634 -169 0
-2432 -7480 8650 0
5249 -1433 6619 0
-2692 2789 -1252 0
-1891 -598 -9825 0
-6426 211 8386 0
-3651 7906 -2469 0
-8656 7632 -8991 0
8158 -7610 5843 0
7788 -8907 -7520 0
-227 1031 4757 0
-7677 6402 -3002 0
285 -9073 -7773 0
-9853 5159 1997 0
-6187 7993 1585 0
-5771 8856 9467 0
879 -9139 -3170 0
-7378 -6969 -1609 0
-7752 7165 -2661 0
-6553 -1995 -7380 0
-2650 467 2361 0
915 518 -9053 0
7458 3640 -9019 0
-6898 -2365 4962 0
6202 -7331 2627 0
-8124 5038 2395 0
-1496 5829 8171 0
-8297 2581 -4555 0
9697 2817 -7596 0
-9560 4082 -8282 0
-1474 -5491 9409 0
1885 955 7944 0
152 -9914 -3010 0
8247 -8263 3463 0
4669 -3053 6880 0
-92 -2306 -6464 0
-8402 -1857 9887 0
2822 -5919 -9874 0
6948 -4864 -2106 0
3238 -4744 4024 0
5297 3909 -2861 0
8402 8644 -9115 0
3927 9949 2307 0
670 -3938 -7203 0
-2252 -2499 1895 0
-5096 -3735 314 0
921 -4178 -2579 0
3789 7473 9510 0
5266 8116 -4165 0
-7217 -1808 -2102 0
9019 4931 7753 0
8619 -1121 6795 0
8114 -6080 1856 0
-7960 2283 -3001 0
-513 -7680 1435 0
5195 -5022 228 0
5192 2196 -4198 0
6193 4390 4730 0
6505 6935 8073 0
-4304 3698 -466 0
-8406 -2090 -8952 0
240 -4290 309 0
3555 1292 -7583 0
9173 9726 -214 0
4806 7975 7767 0
58 -1052 -3959 0
-7297 7235 -3428 0
9504 9517 -7101 0
-4068 7775 -8355 0
669 -2321 1141 0
-8088 -1741 -7081 0
6316 9626 3792 0
-3098 -8141 9916 0
-3593 -8629 6163 0
-4080 8338 -9941 0
-4137 -7175 -7871 0
926 5195 6952 0
-5566 5283 -3800 0
-4007 6392 1973 0
-6470 4624 -8533 0
-1916 2130 -3905 0
1487 5043 1604 0
-3765 1636 -1648 0
-5832 3571 7493 0
7363 -5468 2064 0
1257 -9494 -700 0
2590 -7347 -3692 0
-4005 54 -8128 0
-7442 8727 5461 0
2898 9863 -4114 0
7807 6244 8139 0
-686 -7259 -7280 0
-2898 -4324 -8684 0
-3717 -5197 -1958 0
-7093 9800 -2953 0
6494 2607 -5695 0
-2048 5632 -4355 0
-7489 2205 3965 0
193 5597 -6485 0
-936 3627 -9338 0
-8485 2008 -8984 0
-8302 -1699 5694 0
6883 2633 5218 0
-4123 351 -9673 0
8329 5215 4956 0
638 -3233 -9676 0
-4994 9531 -1778 0
-1011 -1354 6117 0
5554 -6263 -5871 0
1567 -4650 -1440 0
-1747 -7826 -5471 0
4988 -8970 -5828 0
9117 6454 419 0
5660 -5377 2357 0
-2420 9319 3523 0
-8161 1702 -5167 0
9743 9865 6823 0
3157 2212 -8558 0
2023 265 -8598 0
-9017 1393 8216 0
-6738 -6967 8887 0
2192 204 -4249 0
-2294 -7380 -8108 0
-8923 -9320 2841 0
-595 9300 -4022 0
-3151 -5602 4288 0
-2279 7870 2794 0
1492 1976 8722 0
8331 -2245 -7054 0
5585 -3586 -7040 0
-8729 3529 -3997 0
-6198 831 -3442 0
-3377 2947 -3807 0
7042 7819 1535 0
-597 -6279 334 0
2038 963 2023 0
6676 -1224 21 0
-5415 7677 202 0
-7478 -7582 7008 0
-8951 -2361 -3372 0
1461 -5677 -5108 0
-3439 -8203 -8652 0
-7593 -4821 1179 0
-4647 28 -6637 0
4970 -4914 -6042 0
7385 9691 5660 0
-420 4838 8854 0
6989 -8145 6303 0
7406 -8224 -4991 0
5105 -2221 6917 0
-5029 -5506 -670 0
2438 -8403 -3426 0
-6634 5490 2186 0
-7073 -3513 -1270 0
2396 7025 5229 0
2163 9040 -6776 0
4971 832 6453 0
5278 -2421 6133 0
3779 3499 3619 0
4953 -1282 3243 0
4500 -981 -3303 0
1931 910 7265 0
-7397 -2896 -4314 0
4840 -8583 -1975 0
-540 -9456 9249 0
-7725 -756 -5632 0
-670 4838 928 0
1823 -4363 -9939 0
3725 -5712 3748 0
3755 9087 1693 0
1327 2448 -6265 0
7682 -7605 933 0
-4423 1391 3764 0
4643 -4038 -5366 0
-5702 8208 -9796 0
4558 -1231 2823 0
-8298 -7153 9811 0
7956 -6997 -8547 0
-1796 3314 1926 0
-830 108 6072 0
6517 -9773 -6011 0
9465 7622 -5034 0
9757 5997 2929 0
-8408 9786 -5316 0
3326 -7847 9326 0
-6572 3303 4673 0
-8444 -2482 2318 0
980 7515 4805 0
6904 4209 -6238 0
5339 -5493 -3024 0
1813 9477 -6327 0
-1499 -5907 -8334 0
3911 -8836 1520 0
5013 -7493 -400 0
-7206 -7689 3317 0
-1912 -8715 2943 0
6192 -8585 -8755 0
-4449 -1892 7685 0
2695 3328 3868 0
5612 2978 -50 0
-2269 -1410 4222 0
-8966 -682 9341 0
641 -2480 -9942 0
6530 -4131 -5905 0
-6870 9816 9475 0
6946 -7005 230 0
7681 7027 -8770 0
5091 8410 8898 0
9834 9880 715 0
8094 -9494 -704 0
2838 5778 990 0
7410 -7240 -9259 0
695 -720 8985 0
6103 -9930 -1729 0
4375 4594 -1888 0
-5211 -1591 -4638 0
6473 5228 8286 0
8433 1066 1714 0
5373 -7970 747 0
6814 -9700 9686 0
475 -1009 -1485 0
9766 1170 -6121 0
7923 2768 559 0
-5802 -2657 -2695 0
5246 3105 -165 0
-4935 -2175 -3666 0
-2544 3694 4285 0
2190 2702 -3367 0
5039 -2691 -75 0
8511 -1760 -7346 0
-2479 8211 -5987 0
-8086 5503 -6895 0
-1734 741 -1987 0
-6027 9340 7320 0
-6382 -2804 -3983 0
567 8959 -7118 0
9422 -927 -3067 0
3892 -9961 439 0
1890 -4028 3985 0
-1377 -5973 9191 0
-1869 1882 -5116 0
407 4765 8346 0
71 1678 5909 0
-9777 8355 2450 0
-5552 -23 3571 0
3347 3839 -8668 0
9871 3868 -5310 0
3553 -8572 2222 0
4102 4135 -2501 0
7303 -6687 -5492 0
-8347 -7001 5887 0
-7724 -8816 8250 0
-4151 -1899 -4874 0
-6439 -918 -5767 0
-570 3185 -1227 0
607 724 1631 0
5690 -7188 -9728 0
5897 469 -7082 0
-2674 947 3781 0
-4418 5778 9498 0
6307 3150 -6899 0
-1433 3701 -2437 0
107 -6772 -80 0
-3198 -3499 1358 0
-6027 6721 4349 0
7566 5421 -9603 0
130 6504 2165 0
-4456 -3723 -5430 0
4459 -3221 -5838 0
-7074 -6623 2295 0
9069 -6149 -2329 0
4597 3985 -8069 0
-4439 6211 -9136 0
-4425 1754 -2082 0
9104 -1213 6470 0
-6356 8246 6960 0
-9228 660 -9174 0
9840 -7735 6076 0
-198 -7504 9512 0
3073 -4315 -7981 0
-6079 -3818 5020 0
7355 -8461 6442 0
-5839 8285 1656 0
-3092 -2817 -4798 0
-6855 -2009 4326 0
-7421 -4490 -236 0
-7925 -4317 1272 0
-6937 756 -4599 0
-6020 -5476 -1736 0
6475 -6132 2719 0
9432 -9421 -7016 0
-4011 9243 -3108 0
1603 6178 4969 0
-3656 2595 7029 0
976 3975 6078 0
5554 937 -9113 0
5797 -3487 -4487 0
-3777 -9395 9059 0
-1153 -7587 3775 0
1406 -4381 -8508 0
5518 5834 -1622 0
-5307 972 9071 0
3975 -2242 -8640 0
3419 -7901 5626 0
-7744 5421 -6221 0
-3732 -6087 2889 0
1793 3580 8205 0
5364 8046 -6443 0
8668 2311 4738 0
3880 -4116 9067 0
945 8060 -7399 0
6381 9545 -9096 0
-4804 7767 -4119 0
-1888 5578 -8654 0
1172 5092 6468 0
-3858 -4385 3985 0
6869 1949 -4477 0
-4730 -3923 7868 0
2616 -2464 5671 0
-3784 -5629 9067 0
-3213 -9635 -6996 0
3240 -4680 2817 0
-8775 -6610 -4358 0
7926 3396 5090 0
5395 -6583 -5786 0
-8641 -1852 -5102 0
-716 5294 3280 0
-2116 1248 -6448 0
-2376 286 -7456 0
-9729 -2393 3171 0
-875 -798 -3259 0
-9476 -2497 -3169 0
1729 -699 9977 0
381 2080 1593 0
-5388 -3490 -3410 0
1502 1250 7058 0
3638 -3414 -6703 0
-9480 9544 7608 0
-8394 2008 -2408 0
9390 -2872 -3562 0
2280 2925 5119 0
29 -5239 4550 0
6096 -9963 -6581 0
9029 4994 -2002 0
-3630 3254 2406 0
1245 -88 -6927 0
-8696 -9985 -9405 0
-2142 -4357 -6624 0
-3281 2085 -247 0
4678 -389 -1401 0
-5658 -4340 -1919 0
-3144 -8088 -5829 0
8708 1950 2617 0
1252 976 9205 0
8265 -127 4844 0
4663 -5232 1161 0
2302 -5141 -3358 0
-3233 -3269 7186 0
54 3464 2875 0
-3117 7639 1431 0
3515 1389 5880 0
-4583 7154 2706 0
5853 -2671 -2445 0
-3868 -3641 -3173 0
-1930 1549 -978 0
-8592 5134 -5235 0
-7988 8480 7339 0
-9205 -9627 -8766 0
-9327 -9847 4900 0
-4013 8680 916 0
8466 219 -8915 0
-7565 -5641 -5499 0
4587 4620 6593 0
3833 6786 -8847 0
-3958 5506 1902 0
9037 -7224 4542 0
1770 4484 -8676 0
5269 -7184 -2816 0
-4337 -3002 7756 0
-3820 -7830 105 0
5721 523 -556 0
-9677 -4248 -710 0
1975 3708 -9007 0
-558 -8536 -4276 0
-375 6195 3611 0
1118 -2350 445 0
-3551 -5613 -3845 0
6895 8782 -7442 0
-2267 8151 8101 0
-4502 4487 -6985 0
-4633 -638 -5895 0
1534 -9787 5447 0
-9353 -7442 300 0
1246 7539 -5348 0
4136 -8641 -1613 0
7813 -190 -6072 0
5362 -9425 6817 0
-8607 -4380 5454 0
-3390 2464 -380 0
-3727 1261 7744 0
-9232 1652 -7417 0
6785 -9939 -5966 0
-2696 -2490 -5678 0
-5315 4167 1952 0
5164 2831 1200 0
1283 8765 1412 0
5981 1073 1963 0
-1159 -6212 3429 0
-8245 3137 -9605 0
-417 8353 9466 0
347 -3740 4703 0
8222 1041 -1062 0
5221 579 7650 0
2587 -8442 -8445 0
-2647 2842 -1291 0
5350 -7456 3311 0
-8768 -4808 9098 0
8284 -482 -5812 0
562 9648 1352 0
-9896 3160 5513 0
5984 -1891 3999 0
6582 -2471 -758 0
-954 -2790 9795 0
-3493 -2557 4982 0
9800 3250 -3122 0
7111 968 1228 0
-1127 -7438 3581 0
-5064 -4156 6131 0
-4599 5946 -1678 0
-7626 8340 -3540 0
1878 9132 -5531 0
-8843 7908 -9431 0
-9959 -2374 -2703 0
-8471 -9724 8346 0
5869 -2179 8167 0
1068 1347 1758 0
-6000 -5762 7204 0
-6193 9620 3847 0
591 3155 -2634 0
-7473 6885 8028 0
-999 1425 -7464 0
8343 4023 1951 0
-7931 -181 -820 0
-2397 -5070 8954 0
8293 -7688 -9812 0
-7870 7852 -6933 0
9655 -5771 -919 0
437 3778 8078 0
3627 -9140 -5105 0
4243 -4370 3391 0
-6380 -2932 -6828 0
3388 7222 -843 0
6999 -5741 -3349 0
7558 4323 -7736 0
5044 7745 6998 0
261 8713 5156 0
9350 6232 -4678 0
5513 -661 -8814 0
-1299 -4390 -8645 0
-7011 5926 -1720 0
-1394 9067 2490 0
1435 7500 -3038 0
-9969 6677 -3926 0
282 -3151 6784 0
-8264 858 -7209 0
-2161 8130 -1541 0
-3112 -5808 -351 0
-2876 8663 3552 0
2076 -1835 2267 0
-8933 283 -3935 0
-9411 3675 658 0
3824 3013 4438 0
-2633 8454 -7896 0
5376 2912 3095 0
7473 9140 -9679 0
-1548 1166 6878 0
3911 -7467 5324 0
-6290 9965 -9096 0
-5555 -3373 -3368 0
2416 9817 1966 0
6259 -7648 6437 0
7633 -9256 -8580 0
-6462 -5291 9042 0
1517 8205 -4305 0
5019 -6481 -1275 0
4168 -365 -2008 0
-6484 -7813 5933 0
-8105 2540 7322 0
232 -3666 -3864 0
-8115 -539 -9851 0
-9650 217 2338 0
-9699 3621 -3470 0
7890 -3658 -8688 0
-3169 1059 2289 0
-801 1946 -1566 0
-4463 -9977 -9033 0
-3556 4192 9307 0
-9991 5811 8329 0
-2928 3971 -4637 0
2021 1631 7087 0
-6995 -879 1588 0
-217 -5587 4353 0
-4036 -6733 5634 0
-7997 810 6424 0
-7459 9047 5361 0
-279 -3005 -2307 0
6518 6268 -1432 0
-3749 6996 139 0
3464 -2933 -5446 0
-6844 5754 1107 0
3779 2834 9588 0
573 -9963 -928 0
-8690 -6851 -4676 0
2632 556 -7665 0
-6253 8030 4331 0
-6062 -3808 -3555 0
-2854 9059 229 0
-7655 633 -3228 0
-7121 7346 680 0
-3998 -6349 -1607 0
5712 3745 -9232 0
-1097 8146 -2615 0
7314 4212 4670 0
3309 9680 8338 0
-4783 5621 -7460 0
3134 -8669 -3935 0
-3156 4125 -9465 0
-9882 7685 2383 0
7947 7017 19 0
-7544 -660 4591 0
-8062 -2155 5673 0
2418 -1211 6890 0
9767 2546 -265 0
8704 7434 -3604 0
3852 -5945 -7455 0
1901 -1372 2469 0
425 -9794 -6814 0
-2007 -9078 6644 0
-9594 335 5631 0
-780 3904 -5510 0
3183 1262 -177 0
4455 -2459 -8267 0
-926 6789 -8473 0
5855 2281 -7100 0
-3123 -5931 1144 0
-9845 4059 -1271 0
9274 -3803 7153 0
3481 -8046 -9960 0
-3792 7888 9809 0
-4762 2958 -8731 0
4093 -8795 -2549 0
227 7869 5969 0
7718 9114 8045 0
4169 -8900 -7459 0
-4323 8278 -5777 0
3372 -4069 4659 0
-8181 2752 -3167 0
-1829 -7846 423 0
-9822 8860 485 0
-2511 -5850 -7191 0
4701 9582 3526 0
752 7963 684 0
5563 8299 3672 0
46 -7174 8868 0
9797 922 5700 0
2946 5278 7037 0
7351 -1853 1251 0
-5553 4274 -1187 0
7800 6335 -2145 0
-8851 -6877 3537 0
1478 -1063 5484 0
52 -7807 -900 0
-2330 3337 1468 0
6445 3423 8521 0
1814 3424 6775 0
-6898 -7103 7702 0
-7408 -9590 -4255 0
1916 -5160 2853 0
-7093 -499 -2238 0
4100 8895 -2344 0
-1205 -2261 8537 0
-3222 4368 -4691 0
-8089 9817 -4897 0
-153 9186 9563 0
-8428 -3375 -3044 0
3568 8390 -8844 0
-3080 -3828 -3640 0
69 2802 -5666 0
-958 9966 -1700 0
3905 7870 625 0
-433 -3520 2735 0
6536 5481 215 0
5490 -2241 626 0
326 -4107 -2162 0
-143 -657 2435 0
-6869 -3017 276 0
-3227 6977 -581 0
-4102 8632 6947 0
3835 -4110 -8026 0
-9899 3875 6067 0
1675 -2614 -659 0
-6002 7595 7472 0
3149 -9699 -1209 0
-4651 537 1812 0
-1213 895 -2989 0
-3489 7045 6794 0
9438 -4240 -5291 0
4874 9978 -787 0
7339 -8828 4947 0
-6924 -1143 2833 0
2795 -1579 7876 0
8669 -6310 -8606 0
7338 7004 6918 0
4360 5379 -5966 0
7947 -4143 -5018 0
-3804 -7859 -8802 0
-6032 -7507 4812 0
9661 1607 7668 0
-1362 1933 -6800 0
3033 8520 -4453 0
5358 2526 -9196 0
8833 -5279 -6884 0
-9601 7654 1409 0
100 1973 6505 0
6123 -806 6385 0
5089 7744 2064 0
2893 1161 -5425 0
499 6993 -8401 0
-5398 -9670 -5538 0
-6157 884 1045 0
-4038 -5739 -7022 0
3245 8658 -5581 0
8686 2835 9512 0
5922 6092 -684 0
-3090 3630 1693 0
468 4683 -5389 0
5686 5555 -8075 0
5163 1320 -7965 0
107 3398 -3503 0
4126 1929 1547 0
-2258 -325 -203 0
-3960 -7327 6950 0
4685 -2721 7496 0
7376 2045 5561 0
3594 -9282 3994 0
-727 2586 9836 0
-7208 -6564 9534 0
305 -2931 -4902 0
7487 4055 -4379 0
9178 5792 -1845 0
-573 252 -7121 0
718 -7394 -5301 0
5360 -3496 -5927 0
-1810 930 -6014 0
-9211 -9479 -4575 0
3621 6519 4151 0
-8913 1928 227 0
1428 3851 2959 0
-1819 4603 -4733 0
-7357 4944 9595 0
-3064 -8871 -8758 0
-8510 -7055 -5937 0
2482 -8243 3490 0
1846 -195 -234 0
-6272 -1122 4139 0
-6247 6822 -5002 0
6672 9534 2354 0
-2415 6245 -2590 0
5243 -512 -6379 0
-928 6577 1240 0
-3479 -5329 1429 0
-7354 2678 822 0
4853 2462 218 0
550 -1440 -3146 0
-374 9279 180 0
-9439 6653 7495 0
-8816 -4217 -6884 0
8986 1506 -9942 0
2998 4106 -4400 0
944 -1999 9555 0
293 3019 -5031 0
5838 -6130 6543 0
3508 6137 6805 0
4730 -7601 3393 0
9478 6268 -8398 0
-2969 -6373 9745 0
-5242 2516 -1559 0
-3895 -7859 1911 0
-2116 -6119 1093 0
8539 -2329 175 0
-2453 9480 158 0
-8412 -7181 616 0
898 7284 6368 0
8276 16 2186 0
5506 -5819 3125 0
38 -2196 -6063 0
-8729 -8796 618 0
-4230 -3745 9903 0
5991 -6182 8468 0
1191 -3097 9973 0
6260 2995 -7641 0
6989 -8835 -2473 0
-4503 1532 3475 0
-4690 -8519 9048 0
5974 3761 8426 0
-5727 -9923 -5656 0
-8288 1864 -1202 0
8122 7808 2767 0
2712 -1389 4089 0
-4002 7432 -8512 0
3314 6628 -8981 0
7071 -6545 -2143 0
8541 3246 2711 0
2616 -8788 4018 0
4251 -7074 4111 0
1287 3994 -9036 0
5264 -5476 1889 0
7761 4511 -6826 0
-4547 8890 -4047 0
-6487 431 6816 0
-256 -461 -7118 0
-194 7045 -5807 0
-2608 -204 5190 0
-7816 -4622 -6564 0
5452 3061 4229 0
-8789 -2501 1537 0
-3841 -7144 -9626 0
-5288 -7369 -5459 0
-3060 2011 7816 0
1362 5676 -9653 0
375 5389 -4197 0
4787 -6827 -162 0
-8833 -6162 -823 0
-8249 3457 893 0
-6691 1944 -7733 0
-4530 -3626 -6432 0
1786 9286 6208 0
5855 6816 1699 0
-709 1259 8734 0
-791 -302 6479 0
1176 7715 6310 0
7532 720 -4716 0
-5534 -3212 -3481 0
6068 -1553 5911 0
-2708 -5812 6994 0
-3648 6993 -1635 0
-4515 8090 -8275 0
8177 2179 8782 0
4672 7152 6405 0
-3381 6757 42 0
-1509 -5333 4115 0
8684 -1564 -9943 0
-8959 4169 -5925 0
8090 -3642 1054 0
8509 4628 -7351 0
-9697 6712 6035 0
-8214 4134 -9394 0
7265 8305 -5712 0
-318 -5953 -2463 0
-419 -4073 -358 0
5659 -627 -565 0
-4611 -6058 8856 0
2564 -7338 -7903 0
9446 3683 7007 0
7484 -8446 920 0
-2022 2048 -9232 0
-4904 6732 7985 0
8258 -3624 1668 0
-7686 6874 8979 0
-9185 -8022 4679 0
-9691 3153 -5398 0
7795 -8864 -9357 0
3601 -6719 859 0
-9303 3884 -7454 0
1586 -3032 2877 0
5337 2095 6780 0
2447 -3205 7742 0
-7777 -3471 -6453 0
-4135 -5851 4629 0
648 -4984 -5880 0
-8554 8889 5929 0
-4396 -2680 -3046 0
6010 -7355 -4811 0
8179 -7843 -6124 0
-9954 7320 5508 0
1710 1387 3924 0
9319 -8890 8424 0
3818 7935 8648 0
8380 8935 3234 0
-3860 3865 -1993 0
-224 -1090 -2765 0
-9089 3312 -9525 0
8995 -2904 -2935 0
-2572 -1744 -4696 0
-6385 7545 -7283 0
7273 -9057 -7206 0
-98 8676 1614 0
2593 -2692 -729 0
-172 -551 -438 0
-2184 -6442 -9662 0
-3227 1220 -2163 0
-9143 902 -5838 0
-4735 -302 1837 0
-9280 4821 -9446 0
-9098 7320 6213 0
1067 -7564 -5412 0
5972 7688 5745 0
-1332 5903 8592 0
3310 -1471 -5402 0
-2592 9408 -2063 0
-6274 4222 -8103 0
-9364 210 -5380 0
2531 -3143 -9569 0
5765 44 8206 0
8854 4467 9755 0
1259 9326 -973 0
8249 -4626 4603 0
-6245 441 4527 0
-8207 1120 -926 0
641 -1169 4898 0
-6085 -5862 -1814 0
-7224 7588 9412 0
-653 -6953 9798 0
-5141 -4139 7235 0
89 -5918 -4787 0
-5682 -7995 -9855 0
-1067 5380 -9340 0
-7081 -5352 -2530 0
9633 -6702 6246 0
-8690 -8030 3873 0
-7663 -8909 -8037 0
-3273 -1677 3915 0
2337 -306 -9675 0
-441 -2861 6448 0
-8616 -1694 5709 0
-2404 -9412 7101 0
1384 6682 4681 0
-9405 -1484 6274 0
-4546 -9502 -2752 0
-3262 8155 7451 0
-5482 -7263 -8013 0
-8317 174 -8616 0
-2329 5559 -1201 0
-4881 -7455 7770 0
-4252 2284 4337 0
1447 1497 -965 0
5815 2418 4748 0
-6488 -306 -1111 0
3221 -2562 8881 0
3861 8416 7945 0
-7278 -9651 -6349 0
1248 -5126 4380 0
124 -5135 -6026 0
6286 -7892 -1188 0
-8167 1983 -5366 0
1760 1286 -7747 0
-9089 9563 6900 0
-4325 3639 -5027 0
-5235 2983 -2909 0
-8587 1299 7882 0
-4887 5392 523 0
-7177 80 -9278 0
3103 -8779 3202 0
340 -3046 -2337 0
-1360 7256 9539 0
-9802 -2335 -8697 0
1413 -494 -1015 0
-8656 5831 4042 0
-8005 -5433 1452 0
-8308 1839 -4269 0
6316 -4263 5654 0
-3394 5368 -9248 0
-5992 2522 3623 0
-4486 5346 -8895 0
-1942 3490 -2415 0
-8323 1215 -6718 0
973 -4105 -7254 0
8489 -4258 1888 0
-5543 6726 1384 0
-5773 -8297 -4180 0
7373 -6360 9785 0
4651 2612 -1200 0
5238 2224 4235 0
6336 -2386 6964 0
-5039 -2890 3922 0
-6949 5560 2722 0
-5743 -4729 -4271 0
8949 -649 -1427 0
1628 -7083 1591 0
-4038 362 -8147 0
7151 8772 5699 0
-1068 5953 -6032 0
-7311 -6080 6744 0
-9248 -4022 -7569 0
8027 -6759 -1405 0
4114 -2314 -1905 0
-7618 1820 2846 0
-6443 1377 -2852 0
-8673 -1052 -8921 0
-9213 -4824 172 0
-6338 -9773 3969 0
-5349 -4113 5386 0
-7114 -8815 -3436 0
-2231 -9893 8774 0
1078 7536 -1640 0
-8298 -5659 3385 0
4691 2231 4100 0
8746 9229 6015 0
7963 -9047 -9084 0
-4255 -7698 -5721 0
-6906 -5621 8800 0
-2553 7906 4322 0
6933 4520 7623 0
9833 -6080 -1254 0
5203 6911 499 0
-6957 8701 1723 0
1965 6040 -3856 0
-4025 1666 7454 0
6025 -123 -1795 0
-7324 2240 344 0
5225 -5186 5896 0
7498 -3028 7600 0
6269 5681 7375 0
-9536 -8817 -873 0
-8589 8254 -7836 0
4611 -9415 2097 0
6659 -3248 4681 0
-1082 8109 7285 0
-494 -1916 487 0
2214 -3111 -8043 0
-7753 9949 -962 0
3010 5912 9415 0
2094 -9555 -2327 0
-4685 5491 -5847 0
-281 7673 -6136 0
-5445 6925 -5615 0
-9115 -8923 6486 0
-2660 -3183 -5691 0
9697 -3213 -6866 0
-6547 9146 -2454 0
2063 6491 3782 0
-6401 -9873 1074 0
-1090 9631 -3550 0
2882 7802 7211 0
-3565 -5177 3611 0
9577 1384 -8787 0
8873 7372 -2713 0
5227 890 4780 0
3559 10 -8622 0
-9264 4026 -1360 0
-2213 -7636 -2845 0
-5738 -122 -9735 0
8714 -6159 3440 0
-3202 -1331 5514 0
3898 -1253 -6364 0
8364 6651 1195 0
578 -7365 -5805 0
2073 8107 -3210 0
4013 -4979 1515 0
6846 3559 -4299 0
2181 8844 -9934 0
3182 4346 -2510 0
7927 6895 -2272 0
10 -3880 -76 0
-3014 -2167 7953 0
9926 9264 -6331 0
5276 3090 -7787 0
72 5598 2665 0
-6401 1384 8437 0
-3037 1939 -1632 0
4725 -3969 3090 0
8086 610 7054 0
-422 -6653 -5126 0
-1709 2132 2492 0
-4616 -1691 -6120 0
5677 -3969 -2875 0
-4805 963 -6525 0
3760 6088 -4535 0
-1702 8271 1307 0
-4960 -7600 -1790 0
-8646 9532 -1983 0
-2695 9232 9645 0
-7813 8824 -331 0
8694 9043 -9473 0
-2862 5618 937 0
6737 624 4256 0
3660 -7497 7068 0
431 -9492 -7500 0
-3249 6944 6619 0
9562 -9114 -9683 0
-5950 -7057 4280 0
882 4362 -5799 0
-490 4587 -2978 0
-3250 -4642 -6385 0
-8199 2818 6352 0
2468 -4252 5310 0
-1658 2562 -6301 0
5495 -8608 5377 0
7581 8511 -4851 0
-7759 6246 -9281 0
-1580 1342 -8139 0
-2950 4516 -2124 0
-7751 4722 -3137 0
1188 -9770 -9694 0
-2778 -1660 -8447 0
6193 -2281 -7784 0
-5912 -2519 -8486 0
-3515 -3903 -2680 0
6802 5159 -1723 0
6538 -1116 9325 0
-9507 -9318 6215 0
-8550 -4633 5438 0
-4025 2914 1053 0
-4412 1332 -6782 0
4956 6210 8965 0
-2566 4453 6120 0
8812 5667 6251 0
-787 3014 -9038 0
-4581 -3694 -3872 0
2098 -7915 -2993 0
9402 2036 -9555 0
2051 -2068 -5747 0
-4976 7584 7854 0
8915 -8684 -8586 0
-5394 2225 -661 0
-1635 -6854 4920 0
1848 -5059 -3070 0
526 2285 -5432 0
302 5392 -5263 0
-4989 -3369 7414 0
-1380 -4632 8996 0
-8185 4313 833 0
816 -6482 9565 0
3272 8926 3495 0
4940 -8501 -5187 0
-4614 -6046 3741 0
3870 5199 -3850 0
-1479 3986 -5931 0
-2351 -6046 -8435 0
-7510 8414 6351 0
-2560 9581 -4445 0
5924 -9320 7900 0
-6948 9351 8056 0
8415 -8245 6768 0
1791 3461 -8616 0
-6692 1578 -4014 0
8711 1021 7821 0
9060 -8806 -2276 0
-9694 3975 8223 0
-4847 -2183 -8711 0
9593 3825 -4172 0
-6857 4308 -8404 0
-9766 -8610 -9196 0
1946 -1385 4206 0
-4280 -4802 -6381 0
327 -6161 5262 0
-1312 -6165 2239 0
-6250 1295 2936 0
-77 8759 7746 0
-1965 6050 7647 0
-2321 -788 -5984 0
-7973 355 4928 0
8528 -2680 -4508 0
-472 -9786 6201 0
-7122 6597 2611 0
4603 -5789 9184 0
-1547 7839 324 0
-5854 2087 3631 0
7 2610 -7977 0
-8456 -1591 -6240 0
-9712 2823 -1942 0
6876 2409 6022 0
6609 5740 8331 0
8954 6060 -5680 0
-196 2200 -3009 0
6414 1428 6432 0
-3921 -9441 -8727 0
9608 -8931 -1740 0
-3242 8693 7554 0
-6686 -7627 3450 0
-4678 -9910 8064 0
8300 2984 3010 0
2984 -2021 9428 0
9018 -8129 6022 0
-1038 -3465 5096 0
7299 -5712 711 0
9518 7607 8821 0
-8689 66 9447 0
-7063 -5642 3397 0
-2638 -8780 2771 0
-265 -3564 8554 0
2203 -379 -1428 0
8681 -1922 -1892 0
296 9370 681 0
8446 -9512 -8170 0
6902 -8110 4111 0
8311 -2123 -7623 0
3117 -3072 -6746 0
1401 -768 9642 0
-3607 3772 -7307 0
8507 1264 9858 0
9562 -7937 3351 0
-797 -2053 -6503 0
-5563 5476 6799 0
-8887 -8730 472 0
-9004 5962 -223 0
1262 4509 -8191 0
-7483 -4894 228 0
5965 6257 -4847 0
7819 -206 5091 0
-2106 -9799 1630 0
-4661 -9073 4351 0
-1602 7204 3204 0
-6420 -1420 3038 0
663 6022 -1873 0
-914 -9889 -6130 0
-8159 9682 -5422 0
7006 8608 -6278 0
5684 9297 -9821 0
7518 -4564 -5233 0
-8272 -9016 3173 0
9734 4827 5675 0
6683 905 -3574 0
-5720 -3040 -6313 0
5117 -9358 9734 0
1625 7711 -6428 0
3276 -8143 1350 0
-4397 691 -6076 0
-1491 -6403 -7473 0
5522 -5054 -1856 0
7074 -2479 -1167 0
4669 -5076 -9336 0
9426 -5276 -550 0
-9940 3659 -3033 0
-6946 6686 -9139 0
8363 6139 -3166 0
3996 3784 -539 0
-1580 7300 -8550 0
-9922 -6658 671 0
2089 3905 -5685 0
1079 8896 4095 0
4579 -8859 -5733 0
-7872 -4874 6541 0
9557 -8050 8818 0
-105 5637 -1655 0
4653 7189 7181 0
2084 8591 -8951 0
-5378 -5149 4808 0
-1105 1006 -6746 0
-6030 7007 4848 0
-5270 -9551 -7066 0
3598 -5785 7671 0
-3667 -265 -6578 0
4373 4793 -7755 0
-9784 -8840 -7405 0
3685 4979 9638 0
-7983 -5350 7651 0
6423 2741 1497 0
-9333 -1474 8599 0
-9719 -4278 -9957 0
-2177 -4711 3195 0
-8706 8144 3291 0
-7368 -3749 8915 0
-1490 7084 -6531 0
2171 2845 -4614 0
-2209 5217 -1099 0
-2349 -1424 10000 0
-8735 -2420 -2856 0
9497 9601 5555 0
5876 -1210 -3244 0
3921 -3735 -4310 0
-8684 -6747 9804 0
1467 4190 6887 0
-4180 3958 -2163 0
-1243 709 -9809 0
-2008 -3399 132 0
1763 -8819 8713 0
1675 9465 1962 0
-7481 3777 -8112 0
-3347 -4037 6849 0
-8479 -9820 -3951 0
-6251 -3389 5883 0
-2839 3486 -5135 0
-8171 -212 2511 0
-6991 -5924 -2566 0
-7461 5228 6995 0
2177 -3152 6050 0
3435 -9126 8072 0
-2643 -2384 4987 0
-2918 7441 -6222 0
5705 -6643 5711 0
-5463 8461 -2837 0
-7985 4723 -1963 0
-8503 4610 4916 0
3869 -2570 -3410 0
3715 -2373 9770 0
-6899 2162 6739 0
8439 -3746 -2660 0
-6250 -4915 -9113 0
7182 6664 -4525 0
5610 6556 7436 0
6390 3127 2841 0
-4923 5001 6476 0
1795 -380 -788 0
-180 -6004 6552 0
-2416 2903 8880 0
114 -4490 -8206 0
-4153 7154 -4230 0
5375 5323 7458 0
-7636 -1218 5697 0
-1909 -3111 -2338 0
-7188 -2784 8043 0
7215 -7285 2112 0
-9249 4027 -8855 0
2377 5370 -7052 0
-9958 872 -7954 0
-7878 8632 2939 0
7850 -1057 -8405 0
-9937 -4974 -2438 0
-7333 -2281 -124 0
1505 -879 -499 0
4708 3556 4300 0
6288 6155 6683 0
1948 -2223 -3936 0
-4639 -5904 -6482 0
650 -9075 1173 0
5503 9481 5375 0
-5002 2674 5572 0
2886 -2933 -3735 0
-9758 -7192 -7222 0
3024 -8321 -1546 0
-6389 6494 -9555 0
-4971 -7018 -5317 0
-2090 6060 500 0
289 822 -1513 0
-4457 -9297 -415 0
-718 2413 -5290 0
-9263 9168 -2530 0
-3641 5817 8073 0
2937 9482 5769 0
-2935 -2654 -3337 0
5942 -4799 1647 0
7362 -7487 -507 0
-5653 -5654 -8835 0
5441 2522 -1529 0
-5482 -4170 -6947 0
-4072 2613 -8747 0
-2697 965 1012 0
9652 -3232 7987 0
-7014 8511 5074 0
4812 -6806 5328 0
-9714 7398 -4654 0
-8592 5249 9736 0
-9283 -1037 -9646 0
905 4473 -9100 0
2529 -5411 -8358 0
-2647 2942 -6687 0
-1667 6389 9622 0
-6791 -7000 8898 0
-9839 1605 1094 0
-6173 2561 6411 0
-8807 -4668 -7302 0
-1369 -1316 8318 0
-7055 -2302 -7525 0
-9677 3368 -69 0
5904 3026 2024 0
2571 7491 9203 0
-5130 7778 1958 0
-1633 3571 2244 0
-3291 4999 -4144 0
-5171 -2199 2884 0
1960 -6921 3823 0
-1814 -31 -4173 0
1686 -7152 8112 0
6135 9200 3443 0
1866 -7185 7426 0
-3480 4688 4624 0
3885 4226 1342 0
-5990 2185 1320 0
6690 -4366 6386 0
-2858 -2192 548 0
-6888 -8539 1306 0
-8402 -4948 6564 0
-4730 164 -6784 0
2008 -111 3498 0
3189 -1871 3744 0
-5644 1543 -4647 0
-3777 4367 5405 0
-3246 9356 -5553 0
-1091 -3116 -7853 0
1360 6368 -1255 0
2491 2930 -2432 0
9724 1365 -3604 0
5387 -4050 -307 0
-3310 4011 5505 0
-6397 -1830 1532 0
2678 3486 -4540 0
8692 6731 -9850 0
4205 -9827 -3386 0
-4517 -6614 4330 0
-4604 -4029 6124 0
-3899 -7900 5636 0
-5320 -4319 -5288 0
-2189 -6275 -7437 0
-9568 -3105 2043 0
9055 -6184 7270 0
2627 623 -5443 0
-513 3307 -881 0
1992 6281 998 0
459 -1773 6380 0
3217 7535 -3290 0
-4976 8260 493 0
7684 7277 -4909 0
-825 1917 -249 0
-8773 -2622 7504 0
-2422 5391 -4504 0
-3390 3055 8855 0
-4703 -4531 725 0
-126 7715 3835 0
8230 6311 -1409 0
2707 1625 6156 0
-5713 3529 34 0
523 -5967 -5806 0
4306 1923 -61 0
-5431 9988 3205 0
5161 2711 1290 0
-957 -6317 5857 0
1172 8196 -7094 0
-1592 7352 -3183 0
-6253 -190 -8221 0
-3106 6452 -1845 0
-2783 1283 6631 0
-8319 -5174 2050 0
4846 2931 -9389 0
-6070 9951 -7043 0
7177 593 -2446 0
6195 -3081 -188 0
7811 -5776 -3460 0
3971 6846 9280 0
9510 -5171 -4986 0
-1532 3536 9961 0
-8824 2683 -211 0
668 4855 -6556 0
-8200 -5438 -9163 0
-8171 -7616 445 0
8452 6280 -7512 0
-2293 -1654 -9964 0
-7777 6622 -6624 0
4704 6068 -6868 0
92 2020 -8759 0
8029 8930 -5644 0
1695 -121 -9046 0
4505 4733 -8402 0
-1420 2243 4374 0
415 7612 -6889 0
2528 -7776 7680 0
6755 622 -8951 0
2635 8635 878 0
2822 -1191 -8472 0
868 -5082 7373 0
-4598 4485 6122 0
-3901 -1781 5251 0
1037 1981 8483 0
7070 -9166 527 0
-6251 8353 -5073 0
-7057 -1120 -3981 0
3408 8475 -4793 0
9512 1761 -6343 0
1357 -1134 4324 0
6077 4566 -8290 0
-1250 1635 -5015 0
-4244 -8043 1214 0
9725 9337 1058 0
5339 -9919 7568 0
6384 4579 -7700 0
4764 769 9540 0
-4703 1545 1944 0
1245 8591 -9751 0
-5650 -6588 7564 0
-7050 -9216 -5591 0
8702 7403 7069 0
-8624 -7818 -8675 0
5760 -4695 9696 0
2011 -2023 -1696 0
9953 4707 7023 0
-9025 3853 -5104 0
2880 -9993 -5247 0
-6152 3372 1295 0
-6522 7789 221 0
2372 8738 8275 0
-2125 1554 -8953 0
6778 3117 1391 0
3464 3096 6964 0
2612 -8238 -2272 0
7699 6609 6476 0
4998 -8664 -6115 0
9546 6581 5217 0
7724 8867 -5985 0
1413 276 2366 0
9305 1347 842 0
-8239 -2663 4108 0
-9601 5779 -9700 0
-4395 -6234 3299 0
-2807 5644 -9121 0
4277 5805 -1129 0
-4933 4941 6822 0
-7160 -2455 -8656 0
-9172 7624 6460 0
-7307 5489 6617 0
-7125 -4205 9047 0
7490 -4451 -1104 0
-6972 2259 9105 0
3119 -6628 -6691 0
-9595 -4026 -3413 0
-8061 7291 4003 0
7727 7272 599 0
-9678 85 9102 0
-1846 -9557 7527 0
-7281 -2030 1847 0
6394 4138 772 0
7293 -570 -9776 0
8640 4553 9925 0
-5406 -1297 8501 0
-2314 -359 -3396 0
-6579 8110 1583 0
8705 -5886 -8337 0
7527 -3855 1268 0
2418 -5122 2684 0
-7190 -1198 6360 0
6984 -8816 -7112 0
7311 8921 -296 0
-8791 -9757 -9452 0
8705 -9221 9594 0
1000 -2375 5896 0
2882 -5194 8495 0
7890 5949 955 0
2693 6764 723 0
-8849 -3504 -495 0
-5011 -5174 1988 0
9384 8224 -9954 0
-5551 -7195 -5128 0
1141 7747 753 0
2803 -2361 1201 0
-3526 4450 -8107 0
6520 -3139 -7024 0
2475 -8821 3651 0
55 -2356 6080 0
-7814 7475 -7627 0
3915 -2486 4265 0
-1374 -3131 -3378 0
9529 -2942 -5082 0
-2570 9237 1719 0
7495 6002 3255 0
3809 3082 -3722 0
703 3074 7735 0
-874 1413 -6498 0
6401 4290 864 0
-3345 -2129 -3980 0
-593 472 -3481 0
9760 3659 -5365 0
7254 -8772 -9824 0
4528 2482 -5317 0
5637 6007 7509 0
4756 1393 -273 0
-7940 -9112 1946 0
-5618 677 -7779 0
-9199 5229 1924 0
6743 9779 -906 0
8864 5452 -7454 0
-3100 -2449 -4199 0
-6889 -5673 -8444 0
1939 4325 6903 0
459 -6193 8471 0
-7351 2112 -1065 0
-2901 -8400 8000 0
380 -5717 -2385 0
-6660 -4274 -2624 0
2729 4559 -8691 0
-2980 -4666 5132 0
1929 -9685 -1407 0
5532 -1304 -2668 0
7406 -9998 -781 0
6823 2684 7493 0
-5049 6268 -8706 0
-6197 2537 -219 0
-5817 -4007 -6733 0
-2765 -1879 -5645 0
-6265 -1990 -9211 0
-3962 -2094 -276 0
6374 2722 -9669 0
-82 -531 -654 0
9020 -8964 -3783 0
6974 8417 -6212 0
3249 7605 9114 0
-8983 -4935 -5949 0
1825 4718 1496 0
-1434 2011 -3213 0
-1183 8129 9747 0
1728 -2969 -5343 0
-9736 -9364 -5268 0
4529 -6475 1941 0
5323 -7640 -4347 0
-2930 6782 -6431 0
-668 6294 2062 0
-4170 -7239 -3135 0
7326 -4538 -233 0
-7181 -9051 4973 0
6326 -6512 5658 0
8903 -2526 -2896 0
6786 -2669 1134 0
2799 7489 -5440 0
-1669 2329 -3696 0
-3698 -53 397 0
-6959 -6609 3972 0
-1908 5747 -3791 0
-1971 -1745 8475 0
-5722 -4045 9004 0
8670 -801 -2691 0
9198 5839 -8295 0
-5262 -6832 5277 0
-2528 850 -2651 0
-4970 -6984 -1839 0
4491 5417 -7137 0
6302 4766 -5111 0
2525 -8870 -1265 0
4324 -6670 -6494 0
-732 -3009 5794 0
-5980 -7754 -8906 0
-690 858 -5010 0
58 -1426 3249 0
3163 -3538 -4643 0
1092 1963 -9326 0
-5487 -3723 -5803 0
9431 7046 1131 0
-4179 9026 9340 0
-7842 5197 -5601 0
-4186 6411 -2570 0
7358 6469 6140 0
1640 -9245 1160 0
930 -8741 -8788 0
3832 -2459 8881 0
-4645 4879 4121 0
4868 -5366 771 0
9414 8790 -8127 0
7029 -4361 -1191 0
2754 -911 1023 0
-935 -4863 9784 0
-7611 -8609 -8519 0
527 -9359 1616 0
-4007 8758 -6357 0
6142 -7156 -6300 0
-4288 -949 5335 0
-1519 -2814 2949 0
-8281 7103 -2002 0
519 8271 5986 0
4673 -1108 6688 0
-3749 7122 2026 0
-8158 -3718 6770 0
-2550 3364 7378 0
960 8050 7800 0
-5615 -9674 267 0
4216 7284 9717 0
-4204 6443 2890 0
8765 806 5095 0
-2408 3343 3782 0
-8212 8074 -5497 0
-8469 8686 -3873 0
-6394 4392 3328 0
31 9746 76 0
6450 3541 3880 0
9349 -8687 -1967 0
7168 -3626 -2483 0
1808 -8482 -6682 0
3492 685 5307 0
-2875 6569 623 0
7114 2170 166 0
-4166 -2508 8206 0
7300 -1654 -5649 0
-4961 -4203 9967 0
-6091 8161 -2635 0
-8092 5579 -1741 0
6752 -4105 874 0
-9837 -5826 -8463 0
6098 4538 7578 0
1591 -4975 2890 0
2005 112 2004 0
-9033 872 1440 0
-567 -2604 -1948 0
6135 -6837 -8264 0
-2456 -478 9518 0
304 -4642 2202 0
-6211 -1311 3728 0
-5577 -8585 9586 0
-4999 6637 -93 0
-6751 -8346 9670 0
-4693 4967 2810 0
-9408 -5517 4227 0
9058 7185 263 0
6378 -7830 4946 0
9318 -6413 -7793 0
-8300 331 -1082 0
1273 1844 -2629 0
-1216 3655 -89 0
4398 -4873 6621 0
-8138 2456 2693 0
3719 1644 7175 0
-4981 2885 -8293 0
9413 -1752 -6344 0
9889 3652 -3884 0
4701 -8499 554 0
7629 -2963 -1038 0
-507 7911 -8376 0
-2459 5236 -7866 0
1779 -8587 5993 0
-5775 6358 1913 0
-2348 3284 -6070 0
1877 6837 9038 0
9146 -5603 -3998 0
6407 -3108 -8707 0
7021 8964 3921 0
5516 -705 5201 0
-6378 -217 -1059 0
6726 3687 955 0
1043 -2922 -1657 0
972 9638 -7771 0
4566 297 -380 0
-3536 -5434 2785 0
3568 777 5213 0
-1730 -6132 6890 0
2588 7489 -1298 0
-4834 -8894 -8949 0
6464 -3723 -195 0
-2118 247 -1197 0
-2690 -7493 -4888 0
-9485 8775 -8478 0
5563 -2071 2158 0
-6294 -1759 -1720 0
2160 3262 -8242 0
-9334 5559 -4442 0
-4632 -739 -1803 0
-1656 978 5926 0
9902 6100 1620 0
1498 7460 5859 0
3322 4338 -5689 0
-5621 632 2553 0
-397 7296 7798 0
4557 6837 -2883 0
3140 -4712 8411 0
-5929 5066 3371 0
7888 -6695 -6129 0
-8049 9310 7880 0
-718 -5273 -1374 0
7420 -9463 -1081 0
5116 8234 -8459 0
-4088 -9716 9867 0
-356 -1080 -8983 0
-6550 4507 7692 0
8348 2318 -433 0
586 -2431 46 0
-839 2556 -7122 0
-4983 -4840 -481 0
-8245 2833 -7004 0
-307 -9832 -7839 0
3866 7542 562 0
-8799 -3180 4701 0
8887 365 -2524 0
-1819 -6949 7905 0
-7190 -9568 -1986 0
-9994 -9075 3708 0
-3719 4664 2515 0
-4055 -4920 2458 0
-330 6895 -4003 0
187 -5574 957 0
-836 7898 915 0
-3164 -9013 5983 0
549 -8290 7235 0
-4670 1304 702 0
-2294 422 -7891 0
488 -9702 -8415 0
9215 4453 9722 0
-9510 2533 -9370 0
8340 -9923 1096 0
8798 2553 -1940 0
-7316 -7962 -7897 0
-2839 836 -7195 0
-160 3851 3834 0
6663 -4109 -4534 0
8173 1540 3255 0
5314 -3123 1587 0
919 -4753 -6030 0
7444 -514 5522 0
2121 6953 -9766 0
-3931 8037 577 0
17 -5208 -487 0
2603 3362 8852 0
8009 -7016 -3362 0
-4027 1803 751 0
2353 -82 -4017 0
-8457 5295 -4818 0
9665 1454 6846 0
-8042 -9979 8874 0
-1862 -2728 7785 0
8959 -4693 -6361 0
-3907 -4261 -3342 0
8684 -9120 -4092 0
-2065 -4152 2395 0
5664 -3619 -4251 0
-1787 -789 7167 0
6296 -3989 -9087 0
-5826 -2044 -3630 0
-5079 -7392 -5631 0
-9226 22 807 0
-180 -6396 1518 0
4745 -2671 -8654 0
-3237 4452 -121 0
-2960 9058 3116 0
1647 6514 -8695 0
1687 660 6516 0
-3677 -6921 -1200 0
-5753 375 8888 0
-670 1213 3486 0
-2426 -2531 1252 0
-6790 -941 5698 0
2916 -3611 7841 0
-4630 -9863 8045 0
683 245 2868 0
8339 2624 8196 0
-7759 -4276 -8485 0
-1212 -3856 9101 0
-6105 6339 410 0
-3299 -7674 5008 0
8729 4458 3553 0
624 6741 -3734 0
-8959 -8040 -8019 0
-4544 664 3760 0
-1522 -9768 9571 0
-7715 -10 3730 0
-1692 1947 -1935 0
-4196 9026 1585 0
5971 -4062 7523 0
4650 -3877 1601 0
2859 -2967 -7815 0
5533 -5579 -5663 0
-1764 1982 -9160 0
178 -7143 -4082 0
-3334 6548 436 0
6569 -819 -4706 0
-4023 2477 -5613 0
-5439 8875 -7241 0
5028 -517 -2919 0
8057 6349 3113 0
2386 -3057 -8297 0
-359 7571 -9155 0
219 -2963 -6169 0
80 6859 -7198 0
45 4871 4458 0
4364 4536 8407 0
-7873 6248 -1437 0
3287 -1661 -1573 0
-4935 -4363 -7577 0
-7177 -1995 8823 0
-5452 1834 -5710 0
-5724 7000 6275 0
2870 2019 -4567 0
5263 6032 1449 0
-2907 -6096 1681 0
4560 -4085 -6995 0
2531 -5200 -60 0
4644 5019 715 0
-5349 -362 9061 0
9678 -9026 -5573 0
8331 -9693 -8197 0
-2684 -776 9992 0
-4812 -3860 2460 0
-1969 8888 2853 0
-9165 -2937 972 0
-1456 317 6376 0
2090 9101 3200 0
1164 9083 460 0
1210 1421 9923 0
4585 -6488 8211 0
7126 9017 -5032 0
-3725 3795 -2730 0
8762 4775 -6621 0
8262 4096 -4437 0
-7250 1486 8860 0
4121 9413 -2867 0
2992 1287 -1117 0
-5398 6226 681 0
-8376 7384 2180 0
-1440 -1814 1949 0
-2028 8999 3389 0
5025 -4442 469 0
-1601 4106 -2331 0
9461 1848 4373 0
5506 7872 5541 0
-648 1734 -1370 0
-9529 -9208 7557 0
9306 -9643 -1924 0
7734 -3238 8332 0
-8361 3537 -5387 0
2570 8728 -2154 0
-4938 -3609 5416 0
-7729 6839 -5126 0
-9290 -2172 5784 0
-6003 -7979 9170 0
9069 -4535 -8912 0
931 7296 4183 0
9411 9184 9319 0
-6268 6172 3711 0
5891 -8281 -5773 0
9337 3668 4903 0
-7255 5224 2626 0
5743 -5341 -9723 0
-5004 7229 -7324 0
2243 2149 -4324 0
7903 -6783 8923 0
3383 -335 -4557 0
4385 -1872 8378 0
-6226 -3119 7758 0
6326 -1628 -6221 0
3665 6962 3311 0
3024 5172 2251 0
1197 5376 5168 0
-772 6550 5217 0
-2954 8998 1843 0
1337 -9684 263 0
-9647 -2827 -5434 0
6241 -3783 3655 0
-3569 -9090 5422 0
7644 -5860 5514 0
8799 423 487 0
-2298 -1970 3306 0
-773 2983 -3089 0
5624 3560 -7001 0
3880 -6537 -5834 0
-2267 -9479 -7138 0
8650 5549 8155 0
-9762 4499 2997 0
58 -6838 8632 0
9391 6702 7177 0
4241 -1710 -1211 0
-7858 7691 814 0
7932 -2683 6160 0
-2374 -2566 8147 0
4763 -5597 3944 0
-9971 1351 -8844 0
2338 3122 9968 0
4090 9302 575 0
6298 6993 -6966 0
-7196 8425 769 0
-8120 -3201 -9570 0
4959 -8404 -9417 0
4894 2157 7378 0
7744 -8632 -5606 0
-6369 -287 -3168 0
5035 1292 1631 0
9295 -3388 2107 0
620 -5902 -5768 0
-4413 4476 5948 0
-5767 -3464 4327 0
2289 -5271 4955 0
8411 6986 -3240 0
-6859 -3334 5770 0
-8169 -9244 -7270 0
-3668 7967 -2841 0
8825 -1917 8996 0
1086 -7553 -4771 0
8237 -6789 -4285 0
-3851 -5657 -8748 0
4459 1376 -8183 0
-2999 5343 -9548 0
-867 -3826 7565 0
-1325 2033 -3810 0
3589 -5998 -6137 0
-7840 -8032 -6458 0
-8444 -3398 -6916 0
-277 -3934 2430 0
-7635 960 -4312 0
5307 4578 -6428 0
-8051 -7430 1080 0
6775 -809 6532 0
1935 -2035 -9914 0
-364 -9122 8514 0
1923 9706 8910 0
3718 8454 9072 0
803 -1500 -3545 0
-8757 1984 4556 0
7947 -2772 -2093 0
1876 -1608 5267 0
-9511 5306 9 0
-9981 9871 7839 0
-138 3952 -2933 0
3448 -7771 8336 0
9963 5753 2768 0
-8314 6286 6437 0
1091 7481 5221 0
-6625 365 656 0
3695 51 9834 0
-3055 9794 1347 0
-528 8221 -3335 0
4890 -8498 -5862 0
-9457 2312 3913 0
-6071 -4927 -1528 0
-5719 -5218 569 0
-9800 -188 197 0
6186 5716 1184 0
4567 1937 -691 0
7718 -7699 -6816 0
3464 9424 9467 0
1784 9393 4689 0
-7907 3750 -8918 0
4681 -4851 6410 0
-9546 4470 -2940 0
-9310 -1652 -1034 0
6745 4192 5573 0
-1999 3548 1339 0
-6438 8605 -3977 0
8461 -7375 9263 0
-9512 -6076 9657 0
6062 -8932 -9238 0
-9045 7771 1660 0
-2439 121 9855 0
-4730 1220 594 0
3998 9254 -8269 0
-7169 1666 1871 0
-6106 3989 5138 0
1408 5282 4971 0
9984 8838 6710 0
3649 230 3171 0
5319 -3368 -3495 0
-581 2860 1701 0
6800 5140 9357 0
-9229 -6982 -5114 0
4531 -9141 5400 0
-241 7560 7839 0
6830 3993 -901 0
-7903 3287 3599 0
5450 -4947 -5317 0
-7184 -6658 -3985 0
6663 -3499 3452 0
-546 5991 -4132 0
-8152 6486 3458 0
-3936 3142 -9352 0
4588 -7461 -7740 0
5689 5607 -2933 0
7209 4265 -238 0
-1158 -3474 -3793 0
-5080 -8978 -7764 0
1206 -3727 7547 0
4456 -4798 322 0
-229 7303 -5730 0
7501 -8399 -6227 0
-9989 -9081 4170 0
-3139 -9049 -3038 0
3927 9787 2065 0
-9632 -6091 9054 0
-2383 1256 -9419 0
2487 1152 -9693 0
-4101 6039 -2648 0
6301 1828 -728 0
-7793 -5973 -4456 0
113 -9647 8613 0
-600 -5037 -6613 0
-772 6050 1729 0
-6934 3446 1106 0
8681 -1833 -8349 0
7305 -1615 5931 0
-7248 -8665 -4714 0
317 -2877 -2591 0
4663 -1232 199 0
-7189 3959 -2251 0
-8470 -157 -1432 0
-3183 447 7521 0
-3830 3521 -8437 0
8485 -958 6772 0
2441 4487 -4592 0
284 -3215 3873 0
5925 5800 9497 0
3277 -9674 8859 0
-1429 -5250 -2775 0
5902 6094 -8044 0
-805 9129 1806 0
2269 -6911 6494 0
5286 -7556 -3790 0
7209 8741 -9628 0
6397 7167 -8758 0
9170 9636 958 0
8622 -2655 -4405 0
-4761 6129 8241 0
7882 -2541 1861 0
-8341 -6843 -7082 0
-6210 -9514 2691 0
9641 7569 -1346 0
-1025 1506 -4848 0
6178 9654 4642 0
1315 -2947 -390 0
7444 -1620 -2931 0
9535 -2481 -6481 0
9656 -2792 8851 0
7020 8381 6920 0
4025 4957 7218 0
-4328 4222 4397 0
-2198 2634 41 0
7939 -9375 3011 0
428 -7480 -7716 0
5422 1066 4136 0
-1178 3525 8593 0
-3986 -7442 -9431 0
5048 7424 -5119 0
4092 473 4838 0
-2276 5859 -4783 0
1404 -2000 5864 0
-2459 7444 -5842 0
-4064 -8145 5117 0
3133 1634 -5644 0
5839 1426 6224 0
5459 -4359 5200 0
-9145 6928 -8849 0
2520 -7830 9517 0
6218 3673 703 0
3581 -4791 85 0
-4401 -318 -5253 0
2493 -2462 7479 0
4463 -9537 4582 0
-576 -2583 -7999 0
-3278 -6909 -8394 0
6289 3258 -1016 0
-2123 9148 -8273 0
-9461 -8265 -939 0
5549 1108 6388 0
-3617 -9405 2443 0
-9952 6187 -27 0
-1069 8291 6449 0
457 -9035 -2654 0
890 -9114 -9986 0
-3014 -1342 -1654 0
7533 1715 8793 0
5437 -7282 -2477 0
4428 875 9132 0
-3151 -9177 -7475 0
-5879 -1939 -18 0
-4600 1497 2058 0
2361 -8154 -9095 0
-1122 -2236 8015 0
-2529 5421 1993 0
-4934 5237 3605 0
5913 7217 1760 0
-1489 -6732 -9632 0
3629 -6659 2051 0
2011 2862 -8887 0
-8639 9488 -6052 0
-5818 1509 -8713 0
-2931 -8850 -4400 0
1136 -4214 6781 0
-4175 5407 -1941 0
8439 -7839 -4651 0
-6403 -9013 9243 0
9497 -3789 -2929 0
-4969 5020 -8062 0
5325 -4861 1370 0
3599 -8341 3852 0
-7749 3390 -8836 0
-3548 -5223 2194 0
-5050 -5246 4722 0
5712 -4115 -6904 0
809 -9312 -6707 0
9753 9944 5230 0
8148 -8799 -848 0
7262 -3166 -8293 0
-3314 -9409 -898 0
5269 -5607 9500 0
-1920 2732 -1823 0
2043 4941 3354 0
7037 7009 1120 0
5045 5914 6530 0
-5955 -4210 -6640 0
8971 -5590 -7395 0
1439 103 -5661 0
-1322 4428 7889 0
-1002 -5058 4452 0
-9369 -8516 2000 0
-1199 -2663 5260 0
-9233 4421 2883 0
-8583 69 -4332 0
6162 -6223 -3010 0
3731 -7943 3141 0
9512 -4558 -1565 0
9787 3736 -3774 0
-9440 7785 3738 0
-6602 -5583 1876 0
-9063 -5814 3414 0
9451 4217 -8850 0
34 7112 -4631 0
-1978 8540 1807 0
6032 2202 -6549 0
4820 -3031 3752 0
-6481 -2991 1795 0
-5375 7641 1203 0
693 811 -8326 0
1038 1448 -5157 0
-5209 2963 6070 0
8047 -3451 -313 0
8533 8722 6284 0
2854 365 -7335 0
-8231 9567 2853 0
7809 9229 9732 0
8242 6341 -9990 0
1384 4074 3712 0
287 -8594 -2211 0
7010 8574 -314 0
-7708 -343 9714 0
-3877 2051 -428 0
6013 -8759 4884 0
9787 2344 -3127 0
8941 -2991 -2619 0
5871 -8582 5080 0
-9472 3456 -8184 0
598 -1623 -9854 0
703 3597 4854 0
3836 5122 5140 0
1334 -7363 -7094 0
1765 7610 4194 0
1338 4558 3198 0
-8274 3190 8996 0
116 -7925 4062 0
7962 -5451 -5938 0
-2741 -9145 -7881 0
-1821 8354 -5821 0
543 -4464 8671 0
-8019 -4855 7350 0
-2773 -8556 3862 0
6637 3381 8970 0
3028 869 -5368 0
2774 -225 -9661 0
-6223 1295 -3419 0
-9107 4365 -5776 0
-3184 -8119 2599 0
9332 7846 -5084 0
502 3210 575 0
-4552 -3061 -5485 0
6044 9859 1737 0
-2852 -792 -4089 0
-5698 6934 8823 0
2211 -6698 -7897 0
-9933 8793 6613 0
1513 3458 6983 0
-3714 -7694 6998 0
-8029 -1448 6759 0
-8507 8678 5840 0
752 -481 9146 0
-408 3718 7725 0
64 7317 -1262 0
1296 7652 -5211 0
7747 460 -4568 0
-5449 5834 9489 0
619 -6116 -9879 0
5407 -8878 -7427 0
-9700 7346 1922 0
898 111 -118 0
9312 -4918 -9708 0
-7686 7269 6742 0
-2445 6569 1796 0
1909 5404 -3986 0
1538 1942 7083 0
-7388 6046 -1588 0
7961 4300 -7045 0
-1330 -9243 -3634 0
-5686 -1166 -249 0
-6693 7493 -4037 0
1350 -8200 -3103 0
-3501 5703 3064 0
-2109 -9811 2779 0
6861 1485 5190 0
89 4713 -1921 0
4094 8195 612 0
-6852 -4063 4101 0
5110 -912 -9865 0
-3132 -4891 -2964 0
5157 -9559 3171 0
-3531 -7841 3471 0
-1345 -7133 -605 0
265 -338 -9816 0
7898 1126 5525 0
-6868 -3093 -1950 0
2240 -1226 -9131 0
3350 3721 2684 0
-851 -8143 9166 0
-9274 -9031 195 0
-8563 -4440 1654 0
-8311 -986 9790 0
-2650 7536 6575 0
6468 5422 9784 0
981 -9509 -66 0
-4899 3152 2897 0
4086 -6965 3047 0
5406 9700 -1979 0
7127 -7146 8200 0
-1835 1885 -4173 0
-3742 -1891 6878 0
6433 7203 5230 0
4634 1368 6040 0
-7947 -3886 2231 0
6787 -6928 -838 0
8029 1974 -3081 0
4518 -1847 2097 0
6509 -1180 4479 0
-8095 -4097 -548 0
2461 5362 9509 0
-5706 9748 -3616 0
-789 371 -3578 0
7320 1809 -9136 0
7344 -7770 -5616 0
8598 -9037 -2724 0
8356 9163 -1920 0
933 -6574 8601 0
-5423 3392 -5495 0
8695 917 -5381 0
3909 4582 -4331 0
-1436 -7419 -8477 0
-8369 -8816 -5105 0
5540 7213 97 0
715 5860 -3180 0
-6095 -7689 -4470 0
3856 27 -476 0
-5144 3948 5780 0
6252 -6718 7496 0
-6499 -3538 5461 0
4387 751 9843 0
-5407 793 3534 0
-9 8749 -5718 0
8462 -680 -7295 0
-3936 -4064 -71 0
6956 -6284 6460 0
-3803 9653 -3566 0
-4983 504 -6133 0
3179 1634 -2443 0
2555 -434 -9077 0
4553 6870 -4211 0
4944 6809 -2662 0
-4973 -3366 7352 0
638 9167 -2726 0
282 5024 6364 0
-7510 -1848 5610 0
-5575 5580 8397 0
-9754 -9104 4409 0
4853 7388 7533 0
2308 7948 -9170 0
2412 982 -8567 0
2271 1698 1346 0
555 -6088 -8518 0
-7003 6503 9484 0
3978 6161 -2403 0
1330 -2448 -3137 0
-5525 -4631 -4046 0
-4427 -3857 5104 0
2149 -9385 -1521 0
2236 -922 9970 0
3973 8022 9446 0
-4249 -9507 158 0
2327 3304 -1836 0
9572 -5006 8403 0
7919 9184 1319 0
-7035 8278 -4410 0
-7461 -4226 -646 0
-5812 4000 -6767 0
6970 8809 8168 0
-8086 -8893 -5524 0
-257 -1501 -4616 0
4803 307 -2921 0
-4222 1704 8482 0
-5636 -5343 -49 0
9424 -9359 2342 0
-2301 907 6413 0
-2446 134 2853 0
1768 -3976 2478 0
-8536 6371 1342 0
3141 3459 -2291 0
9077 7208 9872 0
3228 -278 9033 0
-73 -896 6721 0
-4366 867 -7860 0
-980 7085 -5868 0
5824 -673 -1050 0
678 6633 4932 0
8888 4839 -6274 0
-8196 4368 -2493 0
5017 -6889 9658 0
6285 -9424 -6125 0
2965 -2222 -6706 0
-618 -9698 -1871 0
3718 4666 9203 0
3150 -2177 -405 0
-5026 -7201 3898 0
8460 6877 8763 0
6053 -3594 -9734 0
8175 -2929 -4583 0
5151 5791 -548 0
-6401 -114 9454 0
9702 8799 -8043 0
-9556 8343 3603 0
-2161 -9465 -2985 0
-4288 -4391 -9092 0
-8553 -6550 2660 0
-9258 -5289 -3110 0
-8067 -8657 7494 0
7349 4730 -6407 0
-366 4731 5074 0
-9179 652 9106 0
5455 4016 -3603 0
5508 -6702 -1010 0
-1318 -7220 3679 0
1201 -2706 3694 0
2053 5803 9009 0
-4157 2639 3749 0
6285 2326 6217 0
539 5668 -1447 0
7177 2742 4231 0
-36 -2698 4975 0
9519 8785 -6381 0
9772 -9480 -7279 0
-5632 -7393 43 0
7529 -334 5088 0
-2524 3645 5834 0
3842 3541 1292 0
-3889 5797 9550 0
-6293 7655 -6822 0
7715 8419 -364 0
4695 -2058 -2626 0
-3728 -2596 6655 0
7982 34 7810 0
8621 -7931 -3602 0
-4582 -6488 5840 0
3509 504 4399 0
-2667 -9599 -8092 0
-9599 8748 -2164 0
-7710 -7937 75 0
-4251 -6721 4504 0
3569 1491 -6716 0
-3512 9282 2399 0
9786 -260 6736 0
4039 -2160 3870 0
-610 5235 5562 0
-2390 -6321 -7752 0
6513 -5714 391 0
-5936 5372 1732 0
-2969 -2499 9936 0
-5087 -1125 -4589 0
7222 -917 -3892 0
-4692 -5909 139 0
-6999 9303 9927 0
9027 6353 829 0
-7694 517 -7633 0
-7456 9285 -226 0
-8283 -7837 -3410 0
6488 -9169 -2912 0
6381 -8140 7847 0
-7315 -7575 9307 0
2794 -7363 3450 0
1065 -6291 -7234 0
-8685 3541 26 0
-4670 -3977 -3240 0
-4486 4008 -571 0
-5939 721 513 0
-4341 -3133 6905 0
-5419 -3530 362 0
329 -9165 -8418 0
-5971 3604 -2603 0
2601 -6968 1877 0
-9734 5197 -3215 0
7900 7777 -870 0
-5319 7158 2936 0
-7521 -3438 -6154 0
9626 -3840 -3530 0
-1211 2128 -5542 0
5179 -5361 1210 0
5227 4250 -4757 0
6391 -9289 -9722 0
-2116 -4907 9796 0
3536 -5019 -9102 0
-1743 8474 1485 0
9832 -7058 -5573 0
1555 6427 3486 0
9656 -9974 7297 0
-3797 -6953 -6554 0
-3799 6770 -1544 0
-8430 -4747 7081 0
662 -3278 -4352 0
8420 9291 6431 0
5744 -8348 8938 0
-9257 9645 5187 0
-708 9628 1480 0
-4246 3027 9708 0
-4713 -5846 -9555 0
1293 -1999 9976 0
-8762 4856 3053 0
-2345 8711 111 0
7571 6805 4403 0
1116 -5115 -3022 0
3668 6360 3561 0
5027 515 -2849 0
2653 -653 1070 0
8834 3115 -8121 0
-5783 7578 8331 0
-6799 4679 -3985 0
-4598 527 5505 0
-3847 -5298 9225 0
-1623 -8436 -9961 0
1753 -565 -5479 0
-8069 9936 -4150 0
8263 8362 494 0
6417 -9414 -624 0
1828 -666 -8136 0
4829 7895 -4183 0
6285 -4982 5463 0
9446 -1427 -4442 0
-1450 5574 -4631 0
9861 1310 -1678 0
3237 -5601 -5784 0
1444 -1153 5861 0
-5649 1015 751 0
1507 -1842 875 0
6033 -6753 -7849 0
5098 3029 -9326 0
1915 -9768 4103 0
-7698 4289 4975 0
-5717 8807 -7562 0
-9001 -2997 7944 0
-5386 -1728 -5278 0
-2944 -1562 -894 0
5063 -4869 7828 0
821 2981 8755 0
-2652 -3991 -4644 0
-4194 835 -3728 0
3808 2340 -2526 0
-7913 2545 4957 0
2936 -7918 3826 0
8726 841 -8399 0
-6765 -5599 2277 0
-2044 4333 -5596 0
1409 -5352 -349 0
4440 655 -2365 0
1105 960 -7002 0
848 -8464 2338 0
1633 7107 -7514 0
6311 -6373 2321 0
9440 -2652 5251 0
8841 3868 8010 0
-6352 -7087 -6311 0
-6702 -987 2276 0
-9945 8505 9571 0
-568 7807 6145 0
-486 2761 -2191 0
4268 3769 9989 0
-1680 -6984 724 0
-8511 4343 5853 0
5453 -7310 3045 0
-9232 5557 4629 0
1203 735 -1844 0
-2808 6294 4633 0
-5692 -3465 5774 0
-7332 7192 -3426 0
-2350 -8533 -7728 0
7126 -3779 -3113 0
-5051 5818 4005 0
6370 3424 7673 0
-9752 -1680 8400 0
9417 -8896 -9775 0
134 8992 1966 0
2067 9636 1883 0
907 -7525 9174 0
-4656 -3320 -1539 0
-6518 -2017 1772 0
-9216 -5652 7908 0
-9045 2091 2520 0
1100 -7478 6759 0
6179 6023 -796 0
-2687 -2051 663 0
3891 436 -6830 0
-4318 -1594 -1087 0
-540 8776 -4503 0
-9588 -8312 -3884 0
-2207 9005 -1972 0
-4675 -5653 7437 0
-2816 9903 -5129 0
3687 -3522 4784 0
8784 8399 -8945 0
5127 2449 -2993 0
6470 130 7419 0
-333 2063 -9963 0
-7543 2562 -1094 0
-4319 5515 492 0
-5251 3134 5680 0
-3160 -5275 -402 0
-8639 6796 -8604 0
-2770 -2092 8382 0
6682 -5019 -2766 0
-3073 -6657 -4543 0
3149 6048 5081 0
-6393 -7044 6004 0
-1427 -4489 -8570 0
9023 2485 2673 0
-7205 5799 -6821 0
8397 -6688 -4853 0
-1804 2092 -2502 0
2354 7650 222 0
7656 -5285 -8251 0
-3601 -3415 -152 0
9148 -4755 5202 0
6416 -4913 4362 0
6535 1364 6014 0
6262 6295 3315 0
2877 6720 4070 0
-9845 8701 -5355 0
4648 -4852 -5227 0
-2814 -7347 -9374 0
3075 325 7574 0
-9693 4928 -6398 0
-7894 9698 -5270 0
7640 5627 -6959 0
2843 8269 36 0
3683 -8825 9467 0
2208 -2331 -979 0
1251 -4669 -1641 0
3811 -6977 -6545 0
-3130 -1688 -33 0
-2374 -6414 4552 0
-9367 4343 -8902 0
-7721 -2260 1236 0
-8833 -9805 6057 0
-2154 9939 9660 0
6243 5549 -4800 0
4040 -7008 8778 0
-3559 -5462 -3737 0
8791 4812 -1418 0
-9867 -7809 5365 0
5835 2358 9560 0
7667 9362 -3124 0
-1978 -5277 4706 0
7083 555 2543 0
-9715 -31 6876 0
-2374 1714 2607 0
1716 -5234 -1095 0
7188 8936 -8891 0
4616 7775 7905 0
7028 9874 -1839 0
-6880 -7106 5875 0
83 6948 -2380 0
-9586 -3702 2991 0
-7536 2638 9740 0
-4096 4568 7708 0
-8060 -6477 -635 0
5525 -3573 6918 0
-9719 -9899 -6467 0
8640 -3437 8667 0
593 -6302 -6622 0
6793 -7094 4355 0
-870 9034 1874 0
2051 97 -7893 0
7601 -4100 7244 0
4789 -5144 9919 0
3449 4428 5615 0
-666 -5367 5405 0
-7809 8060 6543 0
6471 -358 4865 0
9068 1228 4476 0
1169 6191 6304 0
-3906 -5884 919 0
4762 -3382 8951 0
2455 -2814 -3035 0
-4988 4989 -4055 0
-2160 -4466 4793 0
-1868 7469 2911 0
3164 2677 -7040 0
-6517 2016 -7900 0
4349 -2388 -8814 0
1109 1765 -197 0
-1963 -5319 -1948 0
-594 3594 4673 0
-6798 2183 -5670 0
-1749 8698 -6108 0
1850 -2471 -6940 0
-327 -9470 -2178 0
-7946 -4104 9338 0
5431 27 8334 0
7956 -35 -9401 0
-3022 1988 -948 0
-626 2735 -2883 0
6850 7493 2204 0
-8407 -3785 5564 0
-9252 -2297 -3512 0
-8529 -1974 -7584 0
-4364 6911 -1428 0
-9906 26 5997 0
1331 6680 -665 0
-1130 331 -6277 0
7525 6225 5522 0
-4186 -6225 -6923 0
4759 5609 -1167 0
7431 1990 6348 0
920 -2874 9678 0
-1700 -5272 9389 0
-4285 -4812 -5675 0
4539 5191 6996 0
-4608 -415 8455 0
-5914 7347 3555 0
7295 8510 4593 0
2002 6761 -6201 0
2959 -7981 -9622 0
-2100 86 -9534 0
-2947 -1847 -6433 0
6254 -1147 4737 0
-4815 -2426 7922 0
4954 -5707 -6455 0
7488 3941 -6504 0
8752 2797 -6257 0
-6801 -6477 6109 0
-2092 5504 -1215 0
1919 -2593 4743 0
-4778 -3889 3441 0
-6117 -9221 -2472 0
6569 -8188 -2774 0
60 -9220 -435 0
-6063 3804 -8815 0
-3986 -4957 -5268 0
-5125 4421 5009 0
-8560 -9635 7057 0
-3140 8745 -5764 0
-1722 -6919 -2333 0
9479 9446 -2303 0
-3224 -4386 75 0
-3867 -9763 7317 0
7023 2406 7980 0
-9165 -4965 7310 0
5374 9844 -456 0
-5603 2743 227 0
282 -6793 6753 0
-3683 8843 7036 0
4825 -546 -4918 0
2395 -6489 -7999 0
-9827 7988 -3818 0
-5855 -2901 172 0
-9464 -3796 -7558 0
2262 7507 -3427 0
3272 1700 2382 0
-745 -8190 -6324 0
-4886 -3793 2389 0
-9985 -3856 -2334 0
2673 6529 -5479 0
-6137 -2310 -3029 0
4908 -2144 -19 0
6353 5915 1208 0
-3364 -5001 3325 0
-2189 201 -8192 0
4513 -2895 7033 0
7454 1644 -7506 0
2444 -8845 -1464 0
-5222 -9494 1751 0
-9213 -2012 2005 0
-2363 2146 3344 0
3043 2176 -3000 0
-5262 -6178 8721 0
-8057 -4941 -764 0
5759 -443 5113 0
-144 -9978 6871 0
686 2342 -8192 0
1761 2179 -8225 0
-1780 8669 -7765 0
-8318 681 -6354 0
28 4898 -6816 0
-9090 3817 3492 0
-7526 -5255 5461 0
-2757 8248 7489 0
-2696 6043 -2685 0
-6070 -8551 -3068 0
6860 2781 7584 0
4958 -1349 -3905 0
-5587 4558 12 0
545 -2471 -1707 0
-4407 5784 1402 0
7051 -7135 -6226 0
5756 3095 -4741 0
-576 -7397 -9162 0
3885 5493 -8208 0
-8225 -8427 9188 0
-798 -1559 5331 0
-8912 -5657 -5121 0
-8212 -9625 -8568 0
-2609 -7664 2481 0
-8285 -4689 -6996 0
950 -2415 -4282 0
3577 6698 -5812 0
1380 -6720 8246 0
-4920 -5111 -8559 0
1457 -2903 -4272 0
9471 321 -5652 0
-5591 1019 9690 0
-9004 7038 1025 0
-678 -3219 -5939 0
2430 8613 -8398 0
-2866 -430 -7255 0
3785 -5644 -5765 0
-1158 3231 5415 0
-2796 -8918 -5102 0
-7858 -4903 3603 0
5161 2235 8328 0
-6248 -9614 -394 0
-5146 8171 -6989 0
2791 -9427 -7318 0
-2125 3687 7914 0
-6835 5147 4864 0
-3534 -3475 1509 0
980 -8576 1464 0
-4934 8908 1533 0
-1410 -50 3035 0
8357 -5124 -5007 0
-1548 3836 4940 0
4204 -6134 -7277 0
3333 9459 5786 0
961 -101 -80 0
-9798 1863 -150 0
-4740 -6782 -2080 0
8326 58 6742 0
-2140 2675 960 0
-5784 5070 -1315 0
-1238 5931 4242 0
-9932 3107 3894 0
-4297 -3042 6623 0
7791 260 -1504 0
403 -394 7113 0
420 3401 -84 0
3954 -5694 2060 0
4571 -4546 9645 0
1384 -5791 -197 0
8211 1721 5365 0
-7018 -6238 4656 0
-1233 886 7519 0
400 8631 5948 0
-2083 -9850 3916 0
-2737 -4869 -9252 0
2357 -9144 -9621 0
577 -642 6512 0
-6798 8756 3522 0
-7316 -4028 -7666 0
-6829 -1544 7806 0
4385 6876 8215 0
-2913 -7383 6639 0
2469 -1368 8549 0
9863 -7134 -3364 0
5014 6115 -3812 0
2399 -3221 -178 0
-4366 5074 -5719 0
3095 5037 -8575 0
444 -1681 -8184 0
5761 7100 3741 0
5638 780 -7971 0
9789 -4514 -9780 0
6280 1700 -4342 0
-4568 -117 -8142 0
1342 7736 -5312 0
2379 -5481 1724 0
5055 -7517 -420 0
-8399 8165 -68 0
2827 634 -1733 0
8606 4073 8613 0
-7510 8652 -4450 0
4873 7123 706 0
6530 1630 -8372 0
1988 -2533 -757 0
3355 8285 -4312 0
-3400 -6910 5587 0
-4937 972 -9660 0
8597 -2126 956 0
-1356 -7168 -580 0
-5745 5804 6452 0
7868 -3769 -2 0
-1171 5099 -6417 0
2118 4690 -3788 0
-4684 -8663 8096 0
3933 1289 3413 0
9154 -588 9795 0
1217 8758 4896 0
3596 -2908 25 0
8651 -3437 -1507 0
-9595 -6325 -4976 0
7972 -5653 -2186 0
9493 6788 -3802 0
-3236 -7962 4595 0
-5352 9207 -7676 0
9024 1193 1989 0
831 2998 -4787 0
2626 9699 3222 0
9778 -737 5009 0
8399 2338 5096 0
-3430 -1461 -3483 0
-6133 761 -7630 0
-5486 -8801 -9397 0
9444 8608 -2776 0
9069 6952 7509 0
-6411 5289 733 0
1051 4594 -4515 0
4402 4665 -4291 0
5853 -939 -4279 0
-7477 -7434 -4045 0
-6802 -9138 3322 0
-820 529 9783 0
1423 8050 8210 0
2828 -2264 -3417 0
-9944 -7875 2674 0
9967 -249 -7968 0
-8794 -6618 -8985 0
3263 78 -8530 0
6108 -2760 -7929 0
5552 -3776 3446 0
2996 803 7442 0
-5058 -456 -7577 0
3443 -6288 -7491 0
-6574 9172 5342 0
-1958 1273 -78 0
-8641 7763 7298 0
-9249 6367 -1108 0
-1307 8511 940 0
-8032 -8445 3068 0
-496 7762 -2439 0
1838 8603 3785 0
4633 -4678 7040 0
5985 486 -2461 0
6494 7846 9408 0
-7327 -838 -1527 0
-3897 7343 -1086 0
-7167 -1909 933 0
-7886 2355 1921 0
-5608 5170 -4078 0
-9975 6255 1457 0
-8537 4842 1851 0
1425 2350 4459 0
9240 2965 -4309 0
-5856 -3190 -9677 0
-4874 -4919 -6082 0
5196 -6331 8967 0
7457 -2622 -3469 0
-4891 -4065 -370 0
-9 -9377 5765 0
-6678 3218 -611 0
3367 4344 -567 0
9987 -3960 8639 0
6188 134 7257 0
-147 -9519 -9190 0
4436 -9328 -5446 0
-4693 -5626 1432 0
6747 7902 -4602 0
-827 3141 7508 0
8544 4510 -5937 0
8655 -1925 -456 0
-518 3977 26 0
-9534 3512 -9415 0
1958 8899 -8790 0
-9055 3984 -4021 0
8867 7035 4194 0
-5040 -6653 -9050 0
-1721 4810 4052 0
-3862 3396 -2850 0
-6950 4576 7618 0
2155 -3022 -4699 0
-6799 -2734 41 0
8502 -3785 -6401 0
-5128 6964 5792 0
-3858 -9190 -7959 0
7182 -3268 927 0
4139 -847 -2039 0
-6990 -3083 921 0
-8976 -7384 4619 0
7383 -5767 1447 0
5767 439 -2412 0
-812 -1451 8664 0
-9364 -2964 -2444 0
-1457 -3116 4980 0
6397 4781 4499 0
-5915 1976 -2749 0
4960 -2224 5947 0
-4472 -7745 -1164 0
-8805 4668 2492 0
314 9233 -7873 0
-2038 -1224 3546 0
1024 -8411 -5572 0
8817 653 -5905 0
2408 -8152 -3057 0
6719 -3366 -9898 0
3076 7520 -6988 0
-6181 6973 1715 0
-3700 1211 3041 0
-7571 4872 5261 0
-5265 6791 -2647 0
-7749 9501 -5267 0
-2179 5007 -5495 0
-7483 6525 2038 0
-7203 -2613 2705 0
7922 3536 -8547 0
4370 5426 -5331 0
7065 -8811 286 0
2154 3581 6963 0
-3557 9430 6386 0
447 2938 1901 0
711 -120 9805 0
-3807 -9534 9928 0
-9091 -1025 -7172 0
-707 2920 -595 0
5488 -3721 -8842 0
2716 -962 -501 0
-8335 -5200 2780 0
5928 -6346 603 0
-2525 -4265 -5275 0
8281 -5230 -9220 0
4392 -5935 -6066 0
4104 9977 -2111 0
6935 2853 9315 0
-5015 5620 5440 0
735 8278 9294 0
-16 -3416 -9288 0
-9097 -4094 7675 0
-5559 6763 9768 0
1690 6649 6945 0
-9767 3422 -2026 0
6332 -8511 -6500 0
280 -3657 6838 0
7383 9767 1136 0
-6527 3131 5157 0
6236 8128 -6552 0
-5513 2220 5135 0
1866 -5618 -9813 0
8620 9436 6956 0
7362 -4430 -4854 0
3422 -4138 -1091 0
-7590 -9743 6958 0
-8532 7037 3389 0
-1884 -2580 9563 0
-1880 556 5300 0
-3867 3688 9616 0
1470 -9023 7114 0
-4369 3604 -9182 0
-8842 4543 1417 0
-8089 -8387 -2101 0
2950 -7046 -5655 0
-7435 2501 8311 0
-503 7153 -5396 0
4657 -2456 974 0
-8482 -6817 2604 0
-6787 -5397 4232 0
4447 -1011 1945 0
2752 -8758 -8182 0
-49 -3336 6239 0
9031 -484 5768 0
9987 7962 1353 0
8384 -3026 -7589 0
9450 -9649 4911 0
538 -1899 7283 0
-5985 -5584 -3643 0
4941 -3533 -834 0
-8844 -7548 -6611 0
-7003 1316 5178 0
2301 6124 -3356 0
-6055 -8891 -5128 0
8456 -4363 -3685 0
-5827 9661 3965 0
-1480 2802 -6342 0
-3675 3460 -5695 0
-6055 7701 4489 0
-1369 -2022 3545 0
1509 9702 2775 0
-922 8160 -3197 0
-6780 -1525 3062 0
8557 7321 350 0
3716 4526 5944 0
-4177 -7510 5909 0
-5697 8616 -6502 0
2018 1791 -4290 0
2010 2907 -9647 0
7348 -9367 -7613 0
3548 7605 8845 0
154 -4785 -2951 0
1047 9222 7648 0
4945 2519 -3144 0
646 3132 -7781 0
-4983 -4749 -6716 0
-5380 7842 3710 0
6656 -6315 -1879 0
8827 -1039 -6485 0
7851 -4559 3696 0
-1969 7721 4320 0
9503 7817 -8269 0
3484 -5223 -7511 0
-2058 -4062 -9721 0
3157 -406 -9249 0
-7438 -6942 951 0
9979 -9997 -2940 0
-8752 -875 429 0
1442 -8004 5744 0
9931 7781 -896 0
4450 9091 8579 0
-9873 -5131 5408 0
-779 8128 195 0
-4840 -2324 8090 0
-9789 -1542 2481 0
1350 -6660 8462 0
1253 1458 -7089 0
8524 -116 -6342 0
4835 9408 -9970 0
2107 -9367 -2852 0
8169 5903 6019 0
-7300 -1814 -3096 0
-7532 3507 -9204 0
9869 5884 -3377 0
-6020 -9046 -5272 0
298 3979 -1276 0
-9383 -1930 -7814 0
9926 -7197 4805 0
8735 4225 -7522 0
-2295 578 6417 0
7190 -6594 -8618 0
5241 -8781 5709 0
-4961 -3021 2246 0
-6993 -6001 -8099 0
-372 -69 382 0
-3126 -6403 -4002 0
-7024 7290 -8040 0
-716 -8447 -464 0
-752 238 821 0
-5881 -4809 -2201 0
-2141 -4696 5270 0
-1149 7262 -4605 0
9650 4121 -1808 0
-9895 -2358 -4809 0
8403 -418 9338 0
5018 -2280 8730 0
-2175 -1789 4017 0
6781 4884 -9065 0
6080 3858 -661 0
904 -8557 1974 0
-7446 2449 2782 0
700 3544 -6608 0
-26 -1532 4881 0
-7220 6523 -9544 0
-8641 2793 1493 0
1934 2579 4403 0
239 5692 -4857 0
1672 -1403 5652 0
647 -6376 5210 0
-772 -5681 -6653 0
-7694 50 4402 0
-7665 -9929 7693 0
4777 -3999 4842 0
-5803 4989 -5933 0
5709 -8666 -4815 0
-671 3718 -3483 0
-4043 -3597 9143 0
-8477 -6596 5333 0
-2177 -2665 -7555 0
9784 6332 -9128 0
2817 3537 1301 0
-1172 -390 9927 0
-8628 -9310 2265 0
-2365 9549 2380 0
6152 -2861 8783 0
-4308 -1612 3410 0
-4931 -5376 3357 0
46 -3179 -8343 0
-4381 -2997 3956 0
3733 6130 -2763 0
5044 4047 8790 0
-6394 9262 6412 0
5894 -3555 -7732 0
9089 -2795 8937 0
-9046 5319 -9580 0
3685 7996 9662 0
8711 -346 -5720 0
8929 6251 5850 0
-7044 525 9674 0
-1538 -154 6390 0
6057 8992 -6893 0
4519 7304 -6552 0
2237 -5277 -6198 0
564 2498 7424 0
-1074 -1738 -8744 0
7431 -9997 5383 0
-5087 9542 1842 0
5725 9011 -5288 0
1132 8270 -3691 0
-2153 4616 -8386 0
-3744 -5953 -4537 0
-7084 6261 -5435 0
6722 1194 773 0
3355 366 -2475 0
-5214 2466 -9166 0
-7625 7357 5243 0
-5285 5537 6640 0
-2981 -1700 2182 0
7755 -5850 -8482 0
2725 9257 5499 0
-180 -8628 7892 0
-1703 -9873 8772 0
-5262 -4320 8085 0
5484 4470 1693 0
3859 7 4538 0
-5887 -6622 827 0
2711 -8577 -5465 0
6612 -3578 7080 0
4540 -3045 8154 0
1148 -2214 -9728 0
8011 -170 9070 0
3563 3013 -5768 0
-1787 5107 5322 0
8289 -7318 -2108 0
-9843 -77 1063 0
3924 -1979 -769 0
9928 -9512 -4384 0
-1201 -8343 212 0
-6361 -7410 -9140 0
7363 -2926 8322 0
-2168 -3684 -4712 0
-1596 160 -4092 0
-8129 -6101 7884 0
-3665 3848 6461 0
9629 -5494 6104 0
4619 -762 -2961 0
-9753 4721 7766 0
3700 -3432 -1922 0
-1003 8598 7508 0
-6306 -2144 566 0
9086 2016 3818 0
9080 -3006 -8129 0
-6807 3794 787 0
-9631 -1775 6929 0
-9643 -1456 8575 0
8063 597 4376 0
-9102 -1465 5505 0
6781 -8809 -4324 0
-5103 9801 -6036 0
3018 4835 -2394 0
-2904 -6192 -3861 0
-5525 1915 5329 0
-891 -3527 -879 0
-2872 3489 -1470 0
8701 -2659 -5646 0
-8607 -5061 329 0
-1558 2941 -9022 0
-5652 -5186 3523 0
-3566 -1428 2654 0
4361 7185 3747 0
3221 6833 1760 0
8876 -4855 7106 0
-3083 3302 697 0
7673 -2859 -4254 0
8080 8646 695 0
2924 3380 -3003 0
3961 5131 -9740 0
3529 -159 -1237 0
8111 -527 -2751 0
3645 9798 3075 0
214 -4527 5919 0
3795 -538 -6829 0
-4094 2360 6153 0
844 5058 778 0
-4636 -2978 -3525 0
-281 -1842 -1441 0
3619 -8074 352 0
-1678 7081 4361 0
-8844 -6415 -4026 0
8774 -1652 4901 0
-900 4644 411 0
9144 -6353 3356 0
867 -8909 1848 0
1121 -6906 1180 0
-7498 -6752 6688 0
611 -7740 -479 0
3546 -3240 8094 0
9593 -2475 7275 0
6287 -7335 -1758 0
2204 -1867 -8187 0
-3324 5872 -4074 0
-4925 5649 8422 0
5828 -8800 -3235 0
-9215 -5613 -386 0
4645 -150 7246 0
-8857 -3713 6671 0
8239 4182 1495 0
3131 4757 7277 0
9790 4046 -8144 0
7464 -1714 7921 0
-5858 2658 8830 0
-7477 -9798 -1484 0
5509 -103 9878 0
-2619 -2676 3238 0
1847 -6867 -6172 0
-2374 8569 -3911 0
2172 -8797 -3245 0
-3760 9365 -790 0
-6590 808 -9673 0
3985 -3898 -4163 0
-8545 174 5689 0
1294 5518 -194 0
-7948 6001 7393 0
-8924 -522 -1186 0
9223 811 3092 0
3115 -4365 9772 0
520 1207 -8962 0
5182 -2361 -1081 0
-7360 563 6303 0
3030 1877 -2502 0
-5070 2450 225 0
5404 2637 9266 0
2672 8716 9056 0
-3269 6815 -4316 0
-4920 1552 -678 0
-4594 5928 -7902 0
-3868 -1787 -6328 0
807 9911 -9640 0
1333 -6635 -6357 0
-8821 7581 -8731 0
-363 -5695 2823 0
-3540 -805 -2943 0
-1765 9629 -4122 0
-430 -8926 -8120 0
-1811 -2240 5648 0
7044 -5729 -8507 0
2523 -1114 -7268 0
9538 2218 8853 0
4999 -310 -5403 0
-5589 -9760 6060 0
5361 -3939 -5685 0
-1195 -1506 -6931 0
8580 -4067 -7461 0
-7368 5677 -6940 0
-9715 7351 -8126 0
-3027 5155 -5741 0
-6000 3728 -7325 0
2305 624 -1278 0
1204 -9217 5962 0
-6000 3963 303 0
-1714 7504 -1468 0
717 -4715 5392 0
3799 1996 2724 0
-8753 918 8390 0
5134 5760 -1438 0
-5135 -9504 5209 0
-2027 -4426 -2770 0
-6263 6115 -3031 0
-7185 -188 6154 0
3395 9893 503 0
-5204 -4608 -8107 0
-1978 3854 -4106 0
5013 -8911 -9892 0
1387 -2994 -8396 0
-3748 94 -2953 0
8285 -6710 2718 0
6651 -1086 -3791 0
-1136 -5174 4097 0
-6785 1792 2574 0
-527 -554 6578 0
-2519 6892 2881 0
-7101 4068 -4877 0
-7686 355 1981 0
5036 927 2927 0
1094 -5810 -4305 0
-5300 1941 4447 0
-5245 -6787 -6179 0
4278 -5551 -6045 0
-122 3197 -7423 0
-405 3552 -9742 0
7968 968 -8672 0
-7175 275 4710 0
-96 -5906 6119 0
-9728 -3726 -9190 0
-6326 -8000 9170 0
7074 -8161 -4867 0
-9535 -7511 5038 0
1135 -6365 -3522 0
-4109 -1248 9678 0
-5768 488 8837 0
-9689 -9460 4357 0
-5560 -1869 8411 0
5370 4352 -6445 0
5500 -4055 -2853 0
-1498 1084 -3426 0
9613 -1002 -6108 0
8194 -4614 9219 0
1053 9103 -3287 0
-3722 -9409 -7851 0
3780 -8955 -3692 0
-7609 4740 -8737 0
8468 -4496 -6636 0
-2405 1607 5084 0
9382 -7025 7024 0
-7553 -4545 2192 0
-6591 5393 4514 0
-5992 -6818 3330 0
8770 -2757 -6794 0
817 8158 6110 0
-7607 -2939 2588 0
4514 -9273 7590 0
8334 7536 5705 0
-3255 -5158 -4116 0
-7809 -1041 4446 0
5289 -4680 -6655 0
-5848 1005 -8650 0
-8316 -6978 -8266 0
2833 -910 5974 0
-6940 -6862 9019 0
-3952 -6417 -345 0
7898 8183 6871 0
2955 6455 4172 0
-6921 5331 2782 0
1565 3373 3135 0
4274 -9849 -3515 0
-7537 -103 3654 0
-7078 -512 8917 0
4268 734 6923 0
8828 3505 -7102 0
-9144 2731 5555 0
8838 2557 -1374 0
-7670 -8018 -8902 0
777 8129 4093 0
7459 -8469 -764 0
2968 -7619 -8815 0
2202 -5313 3511 0
7970 -5433 2383 0
-6778 -136 3665 0
-8613 -2323 -9141 0
-8558 4264 9085 0
-5481 -1292 -2751 0
-9692 2975 4819 0
-6131 7274 1422 0
-7160 -9270 5225 0
6742 -9213 6868 0
-4320 9219 4585 0
-6732 57 3342 0
-4654 3173 -2234 0
2312 1393 2470 0
6510 4307 -7993 0
-3753 -2956 3732 0
3599 7817 6190 0
1496 -4410 8144 0
-3699 3946 -6906 0
9140 3346 1545 0
5814 688 -2388 0
5948 -2025 1006 0
-1817 2280 -9235 0
-4439 -1527 -4048 0
-4762 -7875 5118 0
1344 -4140 -9066 0
-4638 7665 556 0
6532 248 -1148 0
9989 -7296 -7551 0
-3652 -3413 8227 0
-7525 8552 -4582 0
-8862 -3887 -3958 0
-2742 -9805 -7649 0
354 -7636 7413 0
-7391 -8687 4416 0
-526 -9057 -4364 0
-9298 -4904 1772 0
-1300 4164 8748 0
3078 2930 6251 0
9381 9430 -7872 0
1025 -138 9818 0
8860 2115 6048 0
-2513 -4906 8882 0
2269 -1083 -954 0
-6621 -5377 -3605 0
471 2862 3470 0
-1135 7066 -1053 0
-9599 -7398 -2695 0
6705 -1226 -7024 0
-2801 -3663 1838 0
-2300 -2756 -7656 0
-8714 -669 -263 0
-181 -4660 -2554 0
-1470 8434 -4086 0
2296 -2337 4607 0
-2895 75 -9797 0
9302 -4700 6298 0
5312 -6633 7501 0
-8986 1657 7063 0
8051 5059 6616 0
4294 6776 4557 0
1001 -8936 1426 0
-7623 -9460 -5968 0
-4981 -456 -9577 0
-9367 -5557 -5971 0
2017 7700 -8346 0
3685 8800 9290 0
-8810 4152 -9024 0
2628 4201 -4796 0
1830 9485 885 0
-8127 -8655 4831 0
-4187 -8668 -9965 0
1252 -8269 7013 0
9464 -764 4726 0
-2362 6316 -3165 0
-1619 2229 9276 0
-6468 -991 5630 0
7482 2916 7711 0
7283 -532 4545 0
-4572 4802 43 0
2497 5798 5175 0
-6449 -7174 3429 0
9589 3912 2427 0
-195 2345 2181 0
-2601 1567 -5928 0
-1186 -3775 6260 0
-1455 318 -9058 0
-8609 3491 3510 0
-856 -5378 -7064 0
8991 -8170 6680 0
-7828 5505 3901 0
-3393 -5520 -5433 0
-5400 -5395 918 0
-8493 -3869 -1067 0
-1460 -8735 -6827 0
-3021 -841 -5804 0
5886 -9815 -8693 0
8688 -3563 6592 0
4387 4639 8485 0
8819 -7922 -2241 0
-6051 8421 -2618 0
-6696 8100 4812 0
-779 5288 -5857 0
-2578 9888 -1673 0
-2982 -9568 3049 0
241 -1581 -5909 0
-6501 8282 -6211 0
-2592 -1297 6309 0
7050 8152 7522 0
8167 418 1475 0
4887 -9737 2059 0
-7296 7436 -478 0
5303 -2782 -973 0
1131 -723 8241 0
968 2492 -4189 0
119 -5994 1357 0
-1618 5592 4536 0
-1808 5855 169 0
8624 2860 -2920 0
-9143 2425 2244 0
9364 7899 7698 0
-7291 -2541 9851 0
-8097 -9595 4949 0
-5494 -8637 7279 0
-8979 -1461 9032 0
1146 6635 9030 0
-3152 -6763 9579 0
8634 9871 -9992 0
-396 -5209 4604 0
-6993 -5674 -6866 0
-5580 5873 -8435 0
-1128 -8226 8606 0
7977 9334 -1715 0
-5404 -9352 -5911 0
-3671 6268 -678 0
-5286 -1797 -2731 0
9131 -4511 -5105 0
8655 -8250 9978 0
-5824 -4752 -4534 0
8996 -1016 6885 0
-3890 -5166 487 0
4462 707 2032 0
-2106 1180 9689 0
-4386 9796 59 0
-1598 -9066 -7902 0
-7367 -9087 -26 0
2073 964 1618 0
-6241 9849 6943 0
-3898 -6432 620 0
4033 9355 4140 0
-8163 -4755 -3361 0
3668 -5708 5910 0
3968 7943 -5188 0
9255 -4683 -7841 0
-6527 -1647 4160 0
9374 9847 -1009 0
-8903 943 1537 0
-6316 -5035 -545 0
9090 7602 -3750 0
-5708 -6058 6098 0
9587 5823 2216 0
-2566 4591 -5064 0
3280 4502 1077 0
-7747 4780 1144 0
-6151 -8818 -7576 0
3617 -4572 -680 0
6867 -9352 8262 0
6606 -9367 -6106 0
632 -4374 2555 0
9452 786 -2137 0
-4186 2633 1060 0
5017 -9072 2201 0
9876 7813 -8822 0
2495 6544 -492 0
-9818 -9038 -8226 0
-9948 379 -1514 0
-7605 -2885 -6414 0
-1251 5017 -5411 0
-7899 -5493 3824 0
-2620 5028 -1813 0
-5399 1615 -5083 0
-8630 503 -3806 0
-9993 -6661 -9234 0
-1495 -8964 -4687 0
8617 -1615 7227 0
-8588 -5703 453 0
-9343 -4037 1305 0
2396 6053 8442 0
-9586 -4479 -4310 0
761 -8697 -3013 0
8046 8932 -9162 0
7758 4193 3168 0
8901 3664 -2946 0
2401 8393 -2397 0
9510 9595 -3646 0
-5532 -8641 -1195 0
-3110 1345 -4114 0
-7577 1897 6078 0
-7598 1585 -8054 0
8248 3298 -8668 0
7999 9743 5609 0
1676 5466 169 0
-3337 6511 -4772 0
9533 9000 -7310 0
323 -1429 -1695 0
-1527 3789 4038 0
2318 -9794 3944 0
-6138 -9297 -9511 0
-9063 8178 -1315 0
-3146 -77 8595 0
9023 128 3707 0
-2031 -5366 -7011 0
-9739 7321 8594 0
-9188 -154 -6573 0
4563 -7488 8218 0
-9735 1489 1250 0
3496 -9550 -8791 0
7222 -2911 5641 0
-8217 7100 4423 0
-1080 -4878 -6780 0
3543 9914 541 0
9593 9068 1824 0
-2436 -697 -3108 0
-4135 -767 -8229 0
-9698 4941 2721 0
-382 -3925 9402 0
-9756 -3760 -5358 0
5663 7925 -4863 0
-1975 2245 -6697 0
-7255 -7946 4028 0
2777 -6149 8608 0
-990 3454 -224 0
-1697 -1475 -2024 0
827 3121 -3722 0
9857 5173 -5602 0
2352 -9957 -255 0
-4077 7088 2279 0
2930 -1304 -696 0
-8741 -6008 -7338 0
9889 -5578 -3478 0
9261 -2766 -8699 0
-9105 -1710 705 0
-5640 841 -3981 0
-4206 -520 8812 0
9272 4674 -2161 0
5471 3649 -4643 0
1082 6350 342 0
-8356 -2276 -823 0
-5409 4217 -9370 0
7998 7710 -5793 0
2227 873 -4309 0
5955 6057 4861 0
-6278 40 -5346 0
-6892 1905 6950 0
-7915 5642 1121 0
3113 9288 -4717 0
-5495 -5828 4109 0
3824 6801 3138 0
1191 -8252 -4633 0
-4708 1756 2193 0
3712 -6162 4790 0
-4929 -6379 -4463 0
2379 2586 2794 0
-280 -927 -90 0
-5651 2520 4136 0
-6873 7261 2267 0
-5858 -1 7579 0
9348 -3893 9914 0
-9260 -4717 2653 0
6929 -4527 -465 0
3670 9518 -3140 0
3504 -2318 -5477 0
-1384 -6447 429 0
-221 7347 -1416 0
4755 9837 2105 0
-5053 -5216 9858 0
-2314 7367 689 0
-8346 1253 58 0
-6624 -5279 169 0
1641 -7340 -4305 0
823 -2906 -9576 0
3137 -2734 1851 0
8862 7969 -4196 0
-194 -6932 8060 0
9929 6831 -3148 0
-5023 7185 -2187 0
-7499 2400 -691 0
4799 4792 8264 0
6620 -593 2504 0
613 3449 -7835 0
-4107 960 -30 0
5484 -6673 -1030 0
-4910 -7767 -2109 0
6747 -7619 -4176 0
9520 703 4638 0
-1449 2917 -6429 0
1047 -9824 2408 0
-8596 -4924 1502 0
-7541 3902 7966 0
5707 8613 8100 0
-513 -7734 -4615 0
-9474 -9327 891 0
6238 -8498 101 0
-1901 -3043 8626 0
-3618 -9910 -8937 0
-3718 7526 -3103 0
-8297 -4988 -5315 0
-9329 3118 -7029 0
-4964 930 -359 0
-4548 9334 628 0
-7783 -7469 -1205 0
-3039 2945 -8311 0
-8099 3860 1793 0
5980 -5724 -8409 0
1687 7296 -1048 0
936 7516 -1142 0
-6021 -8118 1387 0
-4182 7692 -1256 0
-9124 6905 -7420 0
1927 8805 -8888 0
7086 -6321 -7750 0
1677 9499 5459 0
-4713 947 -8219 0
4107 -2270 -6886 0
2343 8983 7662 0
9779 8667 -6112 0
-9058 -2274 9734 0
-1666 -2199 7284 0
3927 -2656 -4184 0
-895 10000 -7370 0
8684 9904 -4255 0
4052 175 2049 0
3263 -892 -1336 0
7272 642 4478 0
9051 535 -7303 0
-6658 7105 568 0
6367 -7307 1574 0
-1305 6966 4227 0
4745 -8480 8846 0
-7431 8663 8740 0
-1459 -3685 -2539 0
6201 2687 1378 0
3781 5325 -3430 0
-6254 3488 3243 0
-9125 2638 3560 0
-2500 -3534 3504 0
-212 360 3364 0
6538 -7535 -4972 0
-6147 3902 -2535 0
-3153 -3163 9873 0
3639 -7956 5690 0
-2941 -2611 4066 0
-2450 -7755 -1047 0
-9050 8725 -9795 0
8471 1044 -2138 0
8663 6814 280 0
-3709 -1847 -7147 0
4211 7725 5462 0
7835 1669 -6264 0
1351 7750 -1906 0
-4123 -5825 6815 0
-5530 -2474 3054 0
-4715 -145 462 0
4886 3571 -1446 0
4891 7034 5262 0
7342 -4918 -7630 0
8706 -4880 487 0
-1689 2303 -6143 0
-3339 8120 7630 0
8531 -6704 -2158 0
1030 8522 6879 0
-5349 7583 -2322 0
-9640 -3096 -3692 0
-3139 3344 -6544 0
3482 989 -6546 0
5673 -9929 6277 0
-7784 -1574 -5129 0
-6000 -3611 894 0
-4589 1468 2034 0
-5183 -6015 7001 0
-3587 7880 9379 0
-5510 440 8781 0
-1875 3970 -7958 0
-3754 -3398 7415 0
9648 9553 -8787 0
7427 6623 -7676 0
-4650 -1859 -465 0
345 8668 -3256 0
600 -1555 9304 0
-6626 -477 5485 0
-7278 -8258 1065 0
5323 5866 -5193 0
5366 4936 5287 0
7221 -7598 4254 0
8276 1260 -8562 0
-1251 -4909 -4374 0
969 7155 5684 0
6031 7960 -3021 0
-3351 637 7324 0
-4731 -8452 -2754 0
2572 -1212 -1384 0
-3767 -9073 2072 0
886 549 419 0
-7875 -7704 -9746 0
-2152 -4979 -3266 0
9014 9296 4141 0
-2102 -8226 7461 0
-2798 8073 2338 0
-9973 -1378 6837 0
6365 5644 -473 0
-7398 -3868 5784 0
8924 4898 -5696 0
-6264 -2050 9789 0
6238 5711 -4690 0
1231 7950 -595 0
-6303 -9424 3781 0
-4968 -9230 8122 0
3811 -176 2379 0
7648 4772 -4654 0
8001 -5851 6511 0
7061 -6670 1110 0
-4196 -8786 6116 0
4837 9019 -602 0
9635 -1628 3960 0
-2055 -2559 8802 0
8241 4184 -6963 0
-8171 -9746 -5404 0
2690 -1357 4985 0
-8740 264 3959 0
3123 -8845 -8705 0
3587 -6153 -9142 0
-9152 -9459 6511 0
-4485 7360 -8352 0
-9359 892 6378 0
-9909 -1836 -5188 0
6229 3978 -6495 0
-4087 2778 -3871 0
-9427 -4584 9501 0
-2769 -4941 -3577 0
1208 -5095 5252 0
6794 6853 5105 0
8984 -6796 776 0
901 -6508 6606 0
-8781 7504 547 0
9889 -3495 -6282 0
4333 6951 -8950 0
3192 -9297 -1626 0
-901 -2179 -1054 0
6308 7190 -877 0
428 -9088 8230 0
-9867 3713 7650 0
2258 5033 1249 0
-295 -6172 -5403 0
-9831 2808 -999 0
-3421 -2428 -9408 0
-9065 -1386 3409 0
-4117 6205 -2652 0
5667 -3728 -8864 0
-4562 -2067 -6095 0
8252 7241 -7155 0
7707 -8071 1978 0
-7732 4425 1798 0
-5572 1954 3072 0
-2825 3107 -7807 0
-457 3256 6008 0
-5436 -6930 -6430 0
4121 5682 -1369 0
1016 5500 -2790 0
1984 -3460 -567 0
-1257 5818 3686 0
-3360 825 -244 0
-7116 -1039 678 0
593 7633 -7859 0
8175 -5428 -3122 0
-3506 3272 -7290 0
-5090 9682 -5523 0
4417 -7825 -1056 0
-7106 -2687 -157 0
-2515 6572 -8638 0
-6519 3282 -294 0
-7680 -8098 -8936 0
-9650 -1480 8629 0
8159 -7257 -8871 0
886 776 6656 0
-3947 440 -6355 0
3130 4560 -7204 0
-6381 1432 -5889 0
7598 4397 -8990 0
-9001 9532 -9314 0
3157 7253 4564 0
5130 4629 -8719 0
1719 -19 -2158 0
-4140 2438 -809 0
-1591 3126 9770 0
6836 958 -3601 0
1482 5504 4289 0
2740 -5914 -3468 0
-9806 -9195 2635 0
-5835 -1458 -4686 0
7052 -6778 -5189 0
-7799 7304 -3067 0
2260 1923 -7123 0
-554 4584 -6693 0
137 6925 -6321 0
-2960 7158 -5975 0
9041 -1410 8890 0
-5909 8436 4730 0
-4102 6118 7748 0
-6381 -3422 -2092 0
5424 -1041 -8580 0
-2324 8380 -8063 0
423 -202 6488 0
8908 7080 6164 0
3952 904 -9680 0
-119 -8971 9210 0
1607 8900 -8160 0
-4000 6606 5773 0
7722 -7281 8237 0
2064 -6077 8046 0
6086 467 -2160 0
9482 1355 5035 0
-5622 7123 -3888 0
6325 7051 -2466 0
4608 -798 -2827 0
7571 222 875 0
-9145 -1014 6770 0
-5124 -5280 3635 0
1601 9272 -6406 0
-9816 -575 -5397 0
9657 8148 6218 0
8185 -5909 -5136 0
-5189 -4868 7528 0
-6317 -927 5724 0
6423 5705 1377 0
-897 -6909 -9383 0
-2201 9656 -6192 0
-7870 3682 8357 0
-753 -9771 -1840 0
-7536 275 6946 0
5487 -4393 -682 0
-1000 -7822 2925 0
-6379 3219 38 0
-1352 1019 2403 0
7881 2289 -6524 0
2577 9070 -4246 0
5365 -692 718 0
4180 7751 1076 0
-1527 7823 3388 0
-4848 -2886 4549 0
663 6274 -3214 0
-3050 2468 -5652 0
3640 -4416 -9245 0
-2792 5987 101 0
3966 -3009 -5500 0
5201 6112 -8756 0
66 1523 -5726 0
-976 -7129 1316 0
-415 6728 4281 0
-5180 6511 8837 0
-8119 -688 -7364 0
-245 3904 8283 0
-1039 -1631 982 0
-3739 3174 -2647 0
-1012 1694 5765 0
-4643 -9682 -9171 0
-7242 -4645 -6966 0
5641 -2972 -6890 0
-2197 -8313 6294 0
-5318 7597 -7113 0
2987 3929 -1306 0
4506 -9263 3776 0
6998 -3465 2804 0
6584 -614 6372 0
7863 -5055 5029 0
628 -1856 4907 0
8331 6483 -5206 0
8247 5890 1585 0
3046 -4839 4356 0
-3776 -9304 -4074 0
-2736 -9454 -3081 0
7793 6192 9327 0
9316 9429 7778 0
-3428 5447 -9055 0
-4665 -7903 9788 0
-3794 -6868 -3116 0
906 -9639 8839 0
-2392 5964 -944 0
-5045 -383 -8914 0
4504 38 -4711 0
-5993 -3454 -6645 0
6095 5055 5028 0
3743 -3709 -2764 0
-447 9666 -6394 0
-5742 -9432 -7125 0
-2640 2327 -6183 0
-5966 9052 -825 0
-6508 -2362 1456 0
-2590 -1227 -1313 0
7764 -151 -3669 0
4439 7304 9517 0
-1548 5534 9508 0
-6159 -1486 -8511 0
-3445 -4683 -6608 0
2299 1815 -9822 0
7462 2603 -8410 0
2758 -2227 5971 0
1594 6681 -5690 0
5407 1016 999 0
4051 3936 -157 0
-7506 5217 8672 0
-2568 -8211 -9343 0
-6453 -593 7270 0
-6708 -3358 -1114 0
6107 3695 -6645 0
-9831 3532 8312 0
2588 808 -4825 0
-1620 6638 1070 0
3942 -6906 2905 0
7725 -9428 2890 0
4489 2438 -3521 0
3761 -875 -3822 0
4596 814 -4756 0
-1980 -7740 -3890 0
-3555 -7487 4138 0
-6123 7369 -5826 0
4191 101 -9472 0
4315 884 8091 0
5073 957 -4887 0
9809 -545 5969 0
-944 1712 -7184 0
-6495 -8146 -2349 0
-5000 -7798 -2986 0
-7436 -8334 -1963 0
-8850 794 6117 0
7293 -4680 -4023 0
-8142 -2537 6967 0
8571 2420 -5924 0
4250 -2755 -1141 0
3862 8265 -3782 0
-2215 8447 8233 0
1679 -439 969 0
-4766 -4297 -9126 0
8760 -4649 1497 0
-5970 -8027 -7355 0
6379 5223 -7932 0
2495 2542 5509 0
-7478 -95 1261 0
9383 9144 -1127 0
-9593 -2884 2330 0
6582 2193 -9416 0
-1037 -9383 6749 0
-6851 1669 2943 0
-5733 -5687 -4886 0
-1689 -7763 1998 0
-189 7042 -3757 0
8742 2002 94 0
3210 -2772 1491 0
7905 3756 -1353 0
1833 9591 8224 0
-6039 1147 -704 0
7391 978 2982 0
-4962 2215 6892 0
-3338 6261 -4635 0
1500 6998 2714 0
-7482 -7234 -4367 0
8375 -5185 -2006 0
2527 4648 6277 0
-2029 2381 -8789 0
1655 5157 -2244 0
2881 4541 8461 0
-2014 -1985 -9654 0
1462 -4453 -2958 0
2400 -1802 -6479 0
7534 6453 9086 0
1357 -1128 4733 0
9265 -8315 3859 0
2013 -9889 1655 0
4707 7109 -3951 0
-6085 -1613 8783 0
-5813 -3310 -4182 0
-8094 -9593 -9958 0
8682 -1539 -3762 0
-4508 -5287 2199 0
-9643 144 7305 0
5851 -749 5118 0
-5436 3720 -822 0
72 -1561 9117 0
1837 6866 -5065 0
3199 -2431 -752 0
9881 3815 -3347 0
-2611 9148 4425 0
-3662 -5165 215 0
-4829 4262 2164 0
-5954 367 -4387 0
8672 5902 -3131 0
6706 -1400 -1684 0
-840 -2923 7447 0
-2298 -4579 8430 0
-5618 -9648 8375 0
-412 517 -7557 0
6304 5171 4896 0
-3465 803 -6215 0
-7638 6460 3627 0
1866 -7068 -6292 0
8160 -943 9585 0
6158 -1613 9636 0
-4149 -6650 7441 0
-9390 9524 -7433 0
-5443 8748 -5743 0
5479 5455 -5731 0
-3937 -5458 1022 0
5904 -8184 5034 0
-7642 -7582 -2167 0
9124 -570 6819 0
623 -7287 1636 0
9338 -5501 4020 0
-8234 3413 -8774 0
9597 3914 3836 0
-9748 -1954 4680 0
-6015 -202 -9164 0
-2913 2000 7033 0
-9333 5808 -5310 0
-1774 -4715 9982 0
-9911 -7598 -946 0
206 1018 -9147 0
-493 7366 -9220 0
1012 -8273 8120 0
5624 973 9205 0
2966 3188 -2535 0
-7239 -7 5171 0
2183 -4399 -2647 0
-1307 5030 8341 0
6018 -7652 4813 0
2477 918 8966 0
-1371 -8982 4593 0
-7762 -7631 -2678 0
5244 -6899 -7672 0
523 3408 -8722 0
5104 4156 -6585 0
9817 -836 3527 0
-1186 4786 2276 0
4906 5712 -5418 0
-6455 -3931 6562 0
7918 -2534 -8314 0
8684 -8858 1517 0
9935 -1489 -97 0
5608 8393 -2340 0
-9538 -9128 4982 0
1979 -1034 7287 0
4841 7283 -9474 0
-370 -1492 -652 0
386 6118 4617 0
-6294 5790 925 0
-3807 -3439 -475 0
2012 6822 -6517 0
7038 -9987 9374 0
5556 -2796 6568 0
-3578 -3309 -8002 0
8897 4287 -5843 0
-7246 -212 -6534 0
8815 -2147 -9840 0
-9808 -7489 1295 0
8122 -3865 4025 0
4714 1395 2209 0
7965 1974 5746 0
9370 5215 5663 0
2380 -7230 -3442 0
-3644 -7183 5061 0
3815 5166 4172 0
-9821 -9069 7502 0
4609 -934 -4922 0
4658 -3824 -6003 0
5822 5450 6213 0
3315 -2903 4916 0
2712 1953 2255 0
-6531 -5181 4310 0
-7922 2078 -7255 0
429 -3512 4276 0
6394 4450 7342 0
-791 4044 -3508 0
616 7328 -7036 0
729 -3774 165 0
-3546 -2167 6983 0
271 -1082 -4630 0
1080 -7707 7297 0
7828 8512 -2677 0
-4513 -7964 -7757 0
7950 -7158 -9977 0
-1446 5773 -6750 0
-3560 102 -9703 0
-806 -2033 -2879 0
6375 6866 7710 0
242 -4458 -7041 0
120 6550 -9770 0
-3686 -4169 5111 0
1313 652 3740 0
-4427 3326 3564 0
-619 8789 2766 0
-5261 7028 -7680 0
8070 -6156 -1175 0
6030 4918 -2572 0
9713 -7437 9890 0
3703 9218 8586 0
-8271 341 -8970 0
-9282 -8199 -9408 0
856 -6403 -3959 0
7812 -5537 8369 0
-2923 7873 -9485 0
-4864 457 -8868 0
14 7469 -5730 0
7996 1567 8864 0
-3816 2974 5614 0
-9532 9635 2566 0
4693 -8815 2577 0
-1643 2394 5071 0
-9471 5900 -6681 0
2635 -9454 2616 0
4380 4006 7072 0
687 -6638 6868 0
-3634 -7493 5413 0
1757 -9776 5394 0
-7762 829 -4323 0
-4386 7102 -2602 0
8776 1498 -7573 0
-1438 -6818 8053 0
6318 9682 -3680 0
6907 -118 4108 0
-841 9844 3937 0
-3366 -259 5859 0
3805 1363 -9279 0
2998 -2146 -1911 0
-929 -6263 4607 0
-5519 -8648 4155 0
8999 6542 6820 0
-8504 7706 -6549 0
-8531 -2908 -693 0
-985 1488 -8620 0
-1001 277 -291 0
-2242 3220 -1745 0
8304 7719 3514 0
-5678 -3410 -209 0
154 927 3568 0
-7943 6953 5 0
1727 108 5141 0
-9417 2713 -880 0
-2045 -8845 -7854 0
-7051 -2574 -9700 0
712 8211 -7486 0
3930 8269 7476 0
9727 8510 2697 0
-2879 -9235 2134 0
5315 3979 15 0
-2055 6202 -5384 0
-7414 2410 -9210 0
-1166 7469 -8964 0
-6353 6705 7810 0
-2652 8370 5561 0
218 1013 4014 0
-6270 -1625 -2673 0
-3580 -8654 7269 0
9207 -4098 -5291 0
7568 -1934 -9954 0
2907 -1261 7274 0
-1436 -8425 3150 0
9666 -6823 807 0
2298 -7131 5038 0
-1588 -9458 -8712 0
-3657 -7162 -7026 0
1452 -11 4510 0
5771 5117 1000 0
-7207 5258 7032 0
9139 8832 -2405 0
3029 4011 5353 0
3215 -5905 -3971 0
8954 -7302 -6353 0
-6129 8147 7092 0
-201 7738 1205 0
7912 8626 -9600 0
1697 2350 -555 0
6973 4819 -4667 0
3026 -2375 7608 0
5477 -6141 -4130 0
-4494 -9619 -5328 0
6499 774 -4958 0
-4523 -1246 -97 0
6307 -912 6283 0
9634 -3753 7531 0
-8504 8826 9246 0
1826 8530 -6889 0
-3813 -5632 -1989 0
9216 -8351 450 0
8367 -987 -613 0
9907 -6392 -1672 0
-3138 6467 4129 0
5766 -38 -2026 0
-8766 7060 -7574 0
-6080 2697 4142 0
-7916 6396 -7947 0
247 -3542 -4913 0
-8584 -3466 3924 0
3640 -5173 -9292 0
1531 -8469 9676 0
-7355 -650 -3230 0
5966 -6782 2573 0
-2807 -9105 -263 0
-6290 6287 -2907 0
4631 5772 5059 0
-2670 4335 6966 0
4535 -1376 9065 0
-2834 6300 -2876 0
-1639 -2739 -8940 0
2534 6211 4075 0
6646 7934 -7966 0
3739 -6407 -3185 0
1085 2047 -5978 0
-1154 -4283 2916 0
-1979 1493 7795 0
6348 8227 -273 0
-3743 8652 3709 0
-5695 5906 9157 0
-9833 -3791 8769 0
-7368 6806 -595 0
-1316 -5455 2218 0
7473 3552 9954 0
5269 -1195 3887 0
1481 -7264 -617 0
-9281 5285 -5015 0
-4015 -4959 -7505 0
4020 9251 -9326 0
-7921 7659 -910 0
-1853 -3407 539 0
-1687 -376 -342 0
-3388 2859 -4178 0
-5463 1076 -4248 0
1524 9836 6253 0
8758 -4609 3856 0
6078 3211 3740 0
-3192 8131 -5031 0
3473 -1105 -2394 0
-8549 -5587 -1692 0
1220 5929 133 0
-8645 4889 9729 0
-2819 -7274 2260 0
-5797 -1620 357 0
8669 -2144 -8278 0
-8441 4465 -9037 0
-7981 -8144 4402 0
5472 -7596 -2542 0
-5411 -7977 9720 0
2413 2546 -9098 0
-6792 3715 -76 0
-3030 -2893 7314 0
3910 -9375 6729 0
1857 -4951 -3876 0
-9218 -9811 -1902 0
93 -6961 3380 0
8060 9820 4537 0
-3819 3739 -992 0
-5056 -926 1524 0
6610 1776 1618 0
-270 -8832 -5077 0
321 310 5211 0
-4112 8365 3558 0
8463 -24 -4500 0
9058 8847 -8982 0
2048 -7078 -4542 0
-6153 5168 2170 0
4099 -9234 -9054 0
-1509 -3757 -7238 0
-3604 7878 -3077 0
4212 6968 -9693 0
-727 -2400 -9242 0
2797 860 -3232 0
-9007 -4638 4712 0
-1170 -8141 9435 0
-1055 8953 5072 0
-7212 -5044 4405 0
3405 4218 4856 0
-2340 3478 5218 0
2946 -2928 -9041 0
4729 7022 -5156 0
8680 -400 -3877 0
4558 491 3878 0
160 4719 -7419 0
-4321 -7334 -8323 0
-959 -3706 -4087 0
-6468 -6113 4166 0
-1445 1724 -5718 0
3017 -6847 -3994 0
904 -961 -9585 0
-3237 -7391 8535 0
6725 8699 7572 0
-8829 423 -1942 0
9884 -9154 -6292 0
-3144 -2678 -6153 0
-2192 9249 6166 0
1565 5331 7938 0
-6067 6575 4400 0
6339 -9150 -3530 0
2519 -6599 -7354 0
-5142 -556 7037 0
-1581 2004 -5741 0
-2689 -7157 6064 0
-6704 -4139 2642 0
7596 -6240 4890 0
-8133 8311 -7449 0
-166 -1225 -9484 0
5803 -854 -8230 0
5425 1221 -3873 0
9107 -7810 -9013 0
3634 -1383 4045 0
-2790 -2557 8796 0
-8147 -1396 -1212 0
2249 -2334 -1554 0
-7658 5032 -1507 0
4514 1743 4064 0
4092 -8529 3002 0
-415 2534 2053 0
802 4155 -5137 0
-4174 721 -426 0
8417 5741 -4959 0
-1553 -3657 -6183 0
5920 4703 -737 0
3013 -7444 5974 0
-7212 6862 -8569 0
-1810 3868 1326 0
-5208 -9124 -567 0
3445 -532 3645 0
921 7087 4735 0
2879 2853 -4324 0
-2943 9691 -1736 0
4335 9791 -304 0
2943 4217 7825 0
4201 -9207 1066 0
3004 3732 -6719 0
-6213 3788 -4098 0
3811 161 7523 0
7593 -9238 -4605 0
6558 -1041 1307 0
5944 7532 -4965 0
-2215 -7806 -6596 0
-1316 -862 -188 0
-1111 -4680 5325 0
5744 -2099 9129 0
-3944 -6406 2288 0
-2030 6466 -7528 0
-5619 6371 9031 0
-6494 -9163 -2067 0
9010 -3414 9152 0
-2796 9102 -7611 0
-1091 -3319 7236 0
-7344 -1282 -5336 0
9325 9442 -7589 0
7328 1470 9101 0
-3195 8432 -1545 0
-8437 -1580 7074 0
367 -1700 1692 0
-7721 -7643 -3289 0
-1269 6115 8575 0
-5566 5147 -9405 0
-5495 -7963 3108 0
-31 -3475 -5491 0
4027 7858 -4482 0
-7463 -9796 -8492 0
8797 2767 -3353 0
-3862 8170 -4523 0
9570 -9730 -6887 0
-5712 3004 401 0
4856 -660 5178 0
8705 -7207 -2897 0
5817 1522 2889 0
-8441 5347 -5271 0
-3244 5527 -6298 0
753 759 -191 0
-6387 8738 5472 0
-7199 5462 -4038 0
6091 -8612 7491 0
-8235 4170 1540 0
2158 -7070 335 0
1763 -7830 8059 0
-1464 -8058 -7380 0
7294 9816 -339 0
6594 7534 -190 0
-6352 -2297 6703 0
-9001 6976 -1115 0
-5743 -2323 5657 0
-6856 -4335 3143 0
9587 423 574 0
-4303 -4680 2146 0
-8769 -3480 -740 0
2824 7369 -5720 0
1094 1658 -3562 0
6658 9450 2875 0
-1485 -2847 5596 0
-8337 8921 -664 0
8028 5292 -5962 0
-786 -1522 -3844 0
-2685 9306 3527 0
7404 -8630 4022 0
7743 2618 9051 0
1945 1263 4038 0
-4842 526 6321 0
-3716 2303 8242 0
1041 8718 8049 0
8796 3814 -6776 0
-898 -2401 -4274 0
3001 -1417 -9361 0
4304 -4446 6546 0
-8823 1329 4567 0
5362 4033 7485 0
-4735 -1013 3481 0
-4055 625 5176 0
9221 -9062 -7051 0
-2082 -4051 2300 0
3152 7258 -4795 0
-6383 1922 8132 0
7932 -4422 -2290 0
-9614 -8067 -8323 0
6328 -1122 5541 0
1312 6255 9299 0
-3703 948 -5817 0
5914 -4166 9778 0
7756 2126 7707 0
5198 6679 -2375 0
4159 247 -9212 0
3931 -9326 3918 0
-2076 -1356 6106 0
701 -2724 -949 0
-8638 2081 6619 0
8428 2941 8622 0
-1927 -9779 5192 0
7973 -8922 7392 0
822 9847 -5881 0
6757 984 9463 0
-489 3414 -801 0
-1067 3828 9346 0
-6599 -1723 8214 0
2522 6544 1982 0
6646 4107 7146 0
-9859 8194 3038 0
78 9700 2735 0
-5305 8651 -5388 0
-6439 -8105 -984 0
-5717 -2979 -6696 0
-509 -9027 1943 0
-6588 -6686 -1883 0
-3609 -968 -2820 0
-4540 4627 7252 0
7209 -6735 1975 0
-8986 -8008 2692 0
-782 -6001 -1685 0
9834 -621 -7010 0
7703 4545 -8929 0
1259 4746 3237 0
-8886 -6717 -9762 0
604 2538 7086 0
508 -3690 -5091 0
1315 2680 -4961 0
4054 -1000 -3946 0
7923 3871 2330 0
7268 -6190 4130 0
7448 -8103 8949 0
6725 8045 -4763 0
5372 605 -7789 0
6717 -8152 -7694 0
9699 -3211 8308 0
4683 2050 8808 0
1807 -9631 -2014 0
-357 -2168 7807 0
-8980 -1291 -6191 0
5813 9404 9541 0
8344 -1322 -8573 0
6164 -4788 -1464 0
3340 -2142 -1005 0
4961 -7053 -8851 0
2636 966 6242 0
-1947 -3988 -7566 0
-3037 -5975 205 0
4119 -2708 3614 0
-4623 -2029 1722 0
-9053 -4743 3338 0
-2921 3398 -8754 0
6650 3127 -871 0
4485 -4389 8620 0
5704 2897 -1015 0
6370 9164 6902 0
6197 3172 -4264 0
6258 -1163 4305 0
-3703 -4020 4379 0
4175 9871 -3274 0
-9466 9247 3394 0
5602 -1787 599 0
631 -5595 1636 0
9033 7208 -9472 0
277 -7747 -5740 0
5123 9487 6951 0
3345 6041 3663 0
7664 4241 -8986 0
7100 805 -5191 0
6778 3087 -9771 0
-7496 1340 -3190 0
4638 2984 -9732 0
4653 7938 1609 0
-3567 -4796 429 0
8475 -7700 -9270 0
6192 1951 -9315 0
-3676 -4478 -3756 0
-7278 2251 -2255 0
-7951 4478 5863 0
6460 -5243 8045 0
6849 9667 1504 0
596 -804 -433 0
-5074 -1499 -6623 0
-7587 6635 2846 0
1812 4561 4065 0
-700 3586 4182 0
-1987 -1087 -6104 0
-2229 -418 3509 0
1593 -1445 -6271 0
4482 -5478 -9236 0
-3493 -1998 -7635 0
8054 3522 5323 0
-5699 4390 -520 0
6271 4207 6920 0
-6597 9831 -1950 0
3557 8539 -7632 0
-2017 7442 6600 0
-4335 696 7855 0
-6849 69 3788 0
3564 -2607 9600 0
-9184 -8020 2572 0
-3757 -1650 -6125 0
2684 -9373 4525 0
-7317 1572 -6725 0
-2282 729 4306 0
1920 1284 1579 0
4375 -8752 3384 0
7949 -365 -6407 0
-6197 7951 4430 0
9245 -7736 9991 0
-9972 6188 4908 0
5245 7371 -546 0
4069 6965 -5864 0
-7554 5060 -1219 0
2168 7321 -6596 0
-5348 6891 -6988 0
2335 3121 3640 0
8596 2368 7276 0
-8759 8236 -3437 0
-506 9235 -8137 0
-6105 -4469 -5052 0
7318 2532 8301 0
9122 -40 -2477 0
8762 -3543 -363 0
-6484 -6086 7517 0
-6500 8795 -4273 0
4100 -5012 3556 0
-8969 -5180 6530 0
3265 -9155 -3493 0
8430 -4913 1924 0
5701 -4854 -3202 0
-8047 6216 -4471 0
4679 6974 -919 0
-5632 8201 2873 0
-6179 3657 647 0
-5814 7474 -1328 0
1339 3243 -5147 0
3095 -4240 -791 0
-7587 -5651 2043 0
9671 -3908 8314 0
-8514 -1577 5336 0
-3980 7270 3097 0
9651 -8193 -8551 0
-3439 373 1065 0
3092 -206 -1673 0
-8550 6770 -7485 0
-332 6038 7772 0
-791 -8981 -9047 0
-9625 2220 6826 0
-6117 9474 7805 0
9693 -3632 9708 0
217 9841 5215 0
-7801 -6705 9594 0
2165 7351 -9574 0
-5310 7815 5456 0
8527 4303 -2156 0
-2334 9414 3676 0
3904 -6697 807 0
397 -5521 7687 0
6842 8465 -6515 0
9793 8726 2109 0
9903 7481 -4289 0
8699 5634 -125 0
2759 -3577 -6257 0
-5776 -6441 9160 0
-8067 8743 1667 0
1574 -3694 -4533 0
-7821 5892 550 0
-6871 4632 -2916 0
-8587 1210 6685 0
-5402 -7841 -7281 0
-1721 1528 -6058 0
1704 8043 -8484 0
1379 -6654 1517 0
-750 -154 -9859 0
-5255 -8518 -707 0
504 9094 1768 0
-933 2961 2821 0
2346 -6738 -6971 0
-2768 1085 -5244 0
-7403 -6597 3306 0
-7469 8685 -5503 0
5691 755 -7413 0
3144 6601 3854 0
3692 -2834 -1281 0
-6772 696 765 0
8208 -9409 -849 0
4652 -2102 5408 0
4229 7605 6831 0
2234 -7712 7606 0
-3558 5611 2913 0
9260 3139 3835 0
1304 918 5349 0
-8482 2187 -3215 0
-5752 3391 -6237 0
-1414 -5521 -9997 0
1543 -88 4200 0
6481 4532 -624 0
3387 3026 -1701 0
9529 4424 1768 0
-8139 4749 -9137 0
-1234 -8630 1382 0
-2023 8133 6436 0
-1744 3575 5622 0
4185 -8991 7962 0
-6367 -1998 3328 0
-5632 3630 -4717 0
7745 1358 -3905 0
9487 5212 -270 0
-6869 -351 2981 0
9803 7489 3416 0
8759 9847 -7340 0
-9152 -5621 -2573 0
-4097 -4563 -8516 0
-5973 -2736 -7239 0
101 -6969 4452 0
4053 3844 5319 0
-885 756 6001 0
-5724 5568 2525 0
2056 2594 -3817 0
1722 6105 7989 0
330 8011 -5243 0
-7125 -2707 -869 0
-7133 -657 -2826 0
-1455 -9003 -199 0
-215 5971 2795 0
-4690 1951 -5404 0
4653 -8866 9402 0
3703 2154 7298 0
-648 3238 4346 0
5910 -2842 -4188 0
4582 -6902 -6032 0
6830 9182 7264 0
7669 365 7404 0
-211 1129 5623 0
-1180 -404 -3380 0
-5279 7820 728 0
5108 -314 7277 0
-7753 -5936 6973 0
1566 9641 -5893 0
-8965 3953 -4530 0
673 -5025 647 0
-710 2420 4778 0
9716 -5505 7071 0
-5030 2570 950 0
-988 3487 -1447 0
1015 2889 -663 0
-814 6543 4907 0
-4628 2714 7802 0
6036 -1737 7189 0
5696 -8305 -7912 0
-3772 7500 8641 0
3410 2717 3574 0
-3486 9276 -7096 0
8378 4236 -6699 0
-9129 -3212 9022 0
3803 5492 5626 0
-4539 7867 -9872 0
7046 -8771 -8534 0
5753 5930 -4863 0
6990 -4865 -1047 0
2105 -40 3621 0
-554 -1783 1784 0
-2648 7192 -2450 0
-5054 9061 -1758 0
-1808 3150 -3512 0
-8966 174 7708 0
1614 4192 3206 0
8056 5180 4438 0
-9475 -5872 3808 0
-2619 3421 -2395 0
-3593 -714 8697 0
-5074 -2899 -725 0
1257 -8949 735 0
6358 9835 7664 0
1234 6022 -5028 0
6711 1331 6874 0
-1880 9300 8893 0
-4512 1584 938 0
-2220 -289 2883 0
-1360 8836 -594 0
-9696 5166 -1508 0
2910 -5120 -4786 0
9220 -2613 836 0
8194 -1018 8761 0
-6706 7580 4195 0
393 1232 2652 0
6455 3634 -4870 0
4609 -7621 6538 0
-9755 1063 -9138 0
-8507 9830 4945 0
9638 3624 -1924 0
8983 6809 -3972 0
-6879 -2437 2459 0
-5524 4747 6345 0
5457 -5544 1227 0
9909 8130 -6811 0
-4868 -1710 -6914 0
-4624 9905 4056 0
5284 -5888 5140 0
-5216 706 232 0
6983 -2794 -7539 0
-5389 2860 5576 0
4278 2030 -3097 0
-3769 -7218 -7878 0
-4996 -1230 -8664 0
-9225 2428 -2243 0
-7456 -1057 6569 0
4819 2918 -7545 0
-3685 -829 -195 0
-15 -6146 8098 0
-7853 5078 -5207 0
-6803 -5609 -9520 0
2255 9415 3774 0
-7507 9721 -9681 0
-4372 -5637 -8115 0
4545 -2325 1769 0
5153 412 3860 0
9972 7516 -2528 0
6621 -9820 616 0
3775 -9492 4665 0
-7140 -8617 3353 0
-8417 4613 9798 0
2314 1178 3702 0
-5986 -4826 9593 0
5418 6873 5997 0
8896 1909 5537 0
7207 -6688 -8100 0
6710 9804 408 0
-5981 -8907 -2997 0
7502 8997 -1419 0
-3344 -398 -7236 0
4520 -7567 6532 0
9463 -8637 -6245 0
4349 -4934 -526 0
-9159 4462 -5002 0
5584 8675 -8897 0
1724 -723 7430 0
1105 -882 -8595 0
-5621 -1409 9735 0
-4920 6552 -65 0
-6488 -9612 -209 0
-5105 6892 -5701 0
5476 4399 6176 0
6593 8101 6702 0
-2663 9840 -1236 0
7941 -482 -2157 0
5093 9571 -3678 0
1312 -9902 3106 0
5727 8301 -2919 0
168 -5103 -6930 0
1580 -2748 -8954 0
9357 6114 -7806 0
270 -6638 5298 0
-6348 8540 4906 0
-5981 6362 9112 0
-9561 -3030 5172 0
-2000 6318 9665 0
6333 1706 7333 0
-2539 2549 -6920 0
-6023 -4300 7732 0
8176 -3459 -6901 0
-9719 7151 1447 0
-8356 -6939 2820 0
9630 5954 7098 0
1830 -5027 -1575 0
-267 7594 -5850 0
-1095 4506 9449 0
-1069 -132 -4008 0
-1805 7250 -4435 0
2883 6197 6592 0
6332 3978 386 0
-7670 -1807 -1032 0
-6848 6485 9842 0
-7445 9217 6337 0
-7022 2124 -1364 0
-4025 1987 -2169 0
-7880 -8343 -6340 0
-1209 -1723 1275 0
-9994 -2404 4949 0
-6898 5426 -748 0
6037 4120 956 0
1426 4835 -1065 0
9066 8662 7839 0
-907 -1856 -6768 0
-931 6766 -3851 0
-8115 -6121 -5415 0
-1761 -1097 -4923 0
8983 -3360 6400 0
6969 7087 4531 0
5213 856 8287 0
7036 1277 69 0
8429 -886 -3982 0
-5599 -4735 -5116 0
-9052 5051 5200 0
4665 5208 -1802 0
5762 -4896 3029 0
6091 4537 -6322 0
-4058 7803 36 0
7941 -3669 -9327 0
3905 -6604 -1296 0
-4901 -4625 -4210 0
4837 7961 8360 0
-6309 5540 2929 0
-8429 9350 -7103 0
-2785 3604 -2241 0
4129 3217 3820 0
-6138 -166 9499 0
684 9945 -4769 0
575 -1707 -7041 0
-6595 4156 -2027 0
2397 -8521 -6035 0
7109 5408 -9794 0
1584 -2066 5638 0
-5638 9028 -3357 0
5085 -1613 1363 0
-9415 7572 6366 0
-5879 7077 -1552 0
9425 -6380 -4734 0
-5119 8524 5890 0
-31 -4583 -8049 0
4537 -7377 -8538 0
-4814 -9603 7093 0
-4956 -4021 1191 0
9901 -1616 -6461 0
8189 8649 2391 0
-6094 4310 130 0
-9089 3152 9862 0
-3764 5710 -5153 0
7180 6196 -9852 0
-9784 5915 5865 0
9201 -8825 4798 0
-3289 -1995 -1896 0
5763 7401 9675 0
-4121 -2372 1801 0
-7548 -4718 -1169 0
1624 6625 6470 0
1866 6406 3774 0
7311 7299 3857 0
-8220 5661 2553 0
5943 9875 8734 0
-8146 7118 4689 0
-786 -2464 -4894 0
-9857 9227 -611 0
8275 -5831 2204 0
5390 3117 5229 0
-5579 9002 5161 0
1358 4232 4105 0
9377 -2534 -1924 0
-4651 9034 -2693 0
-1760 -4355 4349 0
-825 8126 8873 0
-1291 -1336 -2041 0
-6455 4091 8944 0
5757 -852 -6400 0
4397 742 -8853 0
9068 9716 -6295 0
-6552 6537 -9139 0
-8475 -4990 595 0
5461 4256 -2837 0
-8143 2612 9106 0
-4661 75 -8616 0
2294 3179 2137 0
9843 -4895 7112 0
7722 8533 1305 0
-3788 1769 5664 0
-8115 2719 3742 0
9243 -6394 3865 0
4584 5878 8227 0
-7518 1154 -7200 0
-350 -4146 -94 0
-2981 1293 2825 0
1701 -2746 9415 0
4781 -3529 -7869 0
1880 -8475 -7215 0
6003 -4270 -7835 0
3765 7839 1794 0
2572 3285 -261 0
8957 5719 5805 0
9007 3959 3532 0
-6585 69 8297 0
2341 -476 -8813 0
7030 -2086 -3338 0
-2876 -9532 -3252 0
-4200 -243 7385 0
-6439 -7980 6015 0
9598 3653 -4597 0
8908 4540 -8835 0
1352 523 6022 0
5053 4140 4023 0
-9189 -1660 2420 0
-9668 850 -3699 0
-9808 -6892 -1068 0
-5206 879 1560 0
-8254 393 -2394 0
7088 -642 345 0
8138 7270 -6327 0
-6259 4693 1343 0
6864 -6500 -8742 0
-7555 5985 -4671 0
5765 2250 783 0
5446 -3644 -1691 0
7759 -8056 8900 0
5171 -1713 8065 0
8927 2617 -7759 0
1094 -8425 1601 0
-6905 -2004 3340 0
-1525 5261 -7080 0
4760 7084 -2475 0
7498 -2943 7220 0
6265 -1477 3036 0
3239 -4434 5576 0
-8105 432 9469 0
-6063 -2628 -291 0
-1941 1076 -7398 0
-3677 -9170 -7504 0
4705 2231 -8234 0
8684 7387 1014 0
-7743 -1284 -7750 0
2440 -5889 4743 0
5518 6767 5460 0
-5420 -5537 8694 0
1632 -7138 -6160 0
5482 5372 -6772 0
7014 -8838 602 0
9667 9340 3940 0
-9009 7536 -9385 0
-9142 -9630 -6030 0
-1967 5380 3545 0
-2384 9872 523 0
8087 -4713 -8756 0
-6243 9083 7864 0
9956 7939 -7394 0
5555 -1244 1711 0
-3411 6953 -7785 0
-8398 6925 -9878 0
-6542 5403 4894 0
-3099 9418 -7394 0
7262 -2683 9461 0
1988 2478 6863 0
7361 1518 -6626 0
-4550 720 4513 0
-1943 -1373 -948 0
6632 -7838 6670 0
-1690 7680 6350 0
5803 -5436 1186 0
1115 -1088 5498 0
-6558 1744 -659 0
-3949 -2120 6218 0
-3857 8476 -6933 0
-7223 -2044 -1047 0
2970 2905 1426 0
-7017 -7417 969 0
4810 -1133 3841 0
5195 5685 9144 0
1525 -7701 764 0
-6485 -1782 -8037 0
5461 2423 8503 0
-7629 -147 -1336 0
8171 2245 9756 0
4575 -3152 -1913 0
-1829 -497 -5820 0
-4071 -5 7461 0
-4650 -3829 -3066 0
8708 -9010 -2600 0
-641 -4895 -2270 0
5198 7265 4113 0
-7279 4748 -5209 0
-4760 2722 -9983 0
-6812 -5134 -3402 0
1664 9734 4290 0
-4867 -2673 5208 0
7566 8711 959 0
4816 9024 -280 0
-5326 -8462 3871 0
2695 -8719 1512 0
-48 -7100 -3621 0
-8256 -2100 -7920 0
-1662 4207 -5952 0
-361 -7351 -7675 0
-3598 -5627 6247 0
-8396 -1384 9155 0
3854 -9671 -4907 0
-795 6596 28 0
-6651 9415 6042 0
-3823 3273 -2325 0
-7024 8879 4435 0
-475 -9314 6076 0
-4282 7150 -1763 0
-8885 -1964 -139 0
3596 6107 -6052 0
-8517 5725 5409 0
5244 8866 7074 0
2936 -9984 847 0
5934 -4064 858 0
6819 7080 -226 0
1191 -4500 9659 0
-6593 -4819 2104 0
-2417 -2736 -2269 0
-2295 6480 4875 0
9602 4652 -6951 0
6943 -4220 473 0
-8581 3921 4054 0
-6783 2944 9149 0
3035 -2839 2789 0
9723 -5102 -4768 0
-9787 674 6937 0
-4243 -2236 -839 0
-2542 -3190 -613 0
3991 6825 -5228 0
8635 1945 8323 0
-6126 9292 7591 0
9631 3121 6458 0
-105 -532 -2452 0
-9575 -7435 -2240 0
-3341 8940 4737 0
6856 -6102 4919 0
-242 -370 3643 0
799 -7660 -2737 0
-5723 3231 6910 0
-5417 7492 -4417 0
-2953 -2756 -1467 0
6556 -6324 -8819 0
-6113 -4886 -5626 0
-7329 1589 8206 0
2863 -1951 8187 0
-4351 4008 8895 0
-1155 -399 6482 0
3769 4128 6132 0
629 44 -7236 0
3631 -9759 -1759 0
-4912 -5167 -2022 0
-3266 5786 609 0
-1554 -5532 2329 0
-6194 2389 -8254 0
5990 -3653 9502 0
-7505 7193 -2520 0
-8332 -4730 -770 0
-9716 4044 8781 0
3985 8160 1588 0
-8080 -4186 -9640 0
-4371 8249 -7365 0
-187 6843 -3176 0
-4040 4345 2187 0
-9204 213 -2209 0
-9238 7536 4022 0
-3238 -6048 719 0
-3569 4320 5217 0
3845 -6694 -2315 0
3613 6153 6339 0
-9151 -8819 -443 0
-9426 -2678 -9470 0
-2654 219 505 0
-3272 -7635 2287 0
-7970 -3131 -7326 0
-4548 917 -8172 0
3835 -884 -1497 0
8868 4105 -3035 0
-280 858 2029 0
442 3314 9358 0
1162 -6985 6512 0
-3022 9598 8050 0
560 8594 1023 0
-9736 8947 1344 0
-153 4442 -4277 0
1335 6568 -7526 0
-1133 -7504 -7832 0
9012 4910 -7987 0
4849 -8140 -4362 0
-7002 -3439 6145 0
6944 -4551 1577 0
5489 6236 9901 0
-8522 157 8273 0
-5518 367 -8494 0
-7986 -3182 -1009 0
2181 -3985 -5240 0
2877 -8758 1939 0
-9332 7112 3344 0
-9039 -2144 293 0
-1230 9791 -820 0
2534 8023 687 0
10000 90 6582 0
-5179 -6559 1991 0
9900 3578 6994 0
497 -8554 -1138 0
8267 -1147 -9402 0
-3589 -1757 4108 0
8393 5371 -4104 0
-5788 -4996 5501 0
-1994 8932 5445 0
8022 -7768 -7249 0
1264 -1227 -497 0
-3728 962 -1327 0
8519 -3745 -2457 0
-5711 -6041 -4506 0
-97 -5959 -1191 0
-4373 -5025 -1513 0
-6567 3929 8275 0
-6194 7021 3924 0
-8075 -7593 6281 0
8637 8451 -8032 0
-6236 -3151 8104 0
1378 3415 -9305 0
4347 -572 -6274 0
6784 8179 -609 0
5717 -5751 -3364 0
-6244 -4472 -5568 0
628 -4534 -4003 0
2652 8622 -2667 0
9917 -9999 -931 0
-378 3727 9474 0
7098 -7043 5032 0
-3618 -5949 6320 0
-2633 -7037 4663 0
3532 -869 -701 0
-1142 -7716 -7867 0
4876 -868 7448 0
3310 9100 -9359 0
673 -9947 -9519 0
2477 -2144 -5007 0
-8285 3029 -1112 0
8019 7438 5408 0
7583 5354 -236 0
-6068 -3881 -5960 0
-7664 -3231 3293 0
-6686 -5302 -3543 0
7668 -7492 9538 0
9364 -4424 -4679 0
-9001 569 6046 0
-7921 4315 5633 0
9195 -7620 865 0
-6498 -405 -7202 0
2708 3751 -3597 0
-1663 -5535 912 0
-5793 558 8511 0
-3537 4735 7775 0
-8427 9813 -7425 0
8620 1193 4301 0
-2558 -2887 7111 0
-538 5719 8446 0
-1030 9293 1586 0
3165 8977 -1581 0
1422 5291 -6813 0
-8620 8797 -9380 0
1445 2815 1497 0
9737 4845 -6329 0
7856 4455 3760 0
-7701 -3474 9624 0
-8739 7405 3279 0
-1324 -9927 1942 0
5905 3447 3955 0
5357 6475 -3151 0
6570 7626 7699 0
4022 -1883 8985 0
3775 134 -7562 0
-6460 4465 -4678 0
-210 -8704 -9016 0
6690 1406 6769 0
8806 8133 3226 0
7697 -2230 -1869 0
4328 7753 8677 0
-2429 3820 -3497 0
-6937 -7871 -5879 0
9988 -6648 4260 0
-1181 -8372 -9185 0
-5041 7621 951 0
-7795 -7972 -7896 0
-3712 6819 -4909 0
2263 -8429 1465 0
8966 -856 -9135 0
7387 -4546 268 0
7836 2616 -3825 0
-270 -2900 9146 0
4807 -6766 -4285 0
8274 -1973 4754 0
4783 -7285 -7454 0
-7955 -5874 9722 0
-3681 3477 4033 0
2805 -7286 -4141 0
1928 773 1576 0
6684 330 -8150 0
7525 -9860 -306 0
-6886 205 7674 0
8920 7356 -1233 0
6502 -4745 5438 0
-6589 3010 8863 0
2139 -4282 6692 0
-6803 -2596 8211 0
9350 5828 9107 0
9572 8303 2539 0
8986 -3197 1378 0
-1345 835 7139 0
-5732 2637 3644 0
-5604 9791 -8183 0
-3456 -6000 5161 0
2684 1789 4456 0
-9242 -7735 1228 0
3138 -6419 -9011 0
-6301 5136 -5359 0
6360 4413 -6785 0
-235 1720 1875 0
6514 7546 -6688 0
1352 5243 5647 0
6183 7328 2119 0
-215 -2968 6286 0
5666 -2635 -5455 0
-6593 3790 -7587 0
-8099 2367 -7149 0
-4023 -665 6420 0
7646 8720 7700 0
-7474 9103 -975 0
-4282 -3371 4838 0
8893 -4335 9865 0
9263 7798 -8513 0
-7240 -2847 5652 0
5775 2955 -9053 0
-5250 -4614 1996 0
682 568 2992 0
3632 -7624 -9712 0
-1474 -6534 3018 0
61 -9593 -7965 0
-9809 6833 1261 0
-9691 -2387 -3795 0
2570 -838 3877 0
1014 346 7876 0
1937 2311 705 0
7707 8957 3688 0
-5011 5203 7781 0
62 8324 -9426 0
2280 1029 -2450 0
-6698 1437 9829 0
929 -9136 1916 0
-8413 -7290 -5072 0
-132 5971 4158 0
-2108 -6009 5074 0
3842 -230 8742 0
-9352 -2419 -8159 0
8840 9811 6763 0
-4984 -2029 6365 0
-6525 1583 -5160 0
8433 -8534 2607 0
-7468 -8181 -2501 0
9467 -5139 -4305 0
2057 -6710 9845 0
7817 7739 -6928 0
9181 -1836 -2641 0
-7345 -1677 4219 0
7083 -9837 -4875 0
5424 2137 9665 0
3587 -2089 9087 0
-5163 -7343 -19 0
6298 -3043 9149 0
4442 -7285 4844 0
7205 2576 -3283 0
-8018 9199 7206 0
-8177 9042 9252 0
-7621 4888 -6804 0
1331 -5663 -4946 0
-9625 -9218 3073 0
-5339 288 9774 0
-7436 -5065 -8805 0
5098 3148 -1220 0
7380 -3404 6355 0
-3532 -9100 5084 0
-1827 -5871 917 0
9382 6161 2001 0
-6234 535 -4555 0
917 895 -2120 0
-5647 -4496 -2896 0
-2240 6755 -1943 0
8353 -9093 2648 0
7593 2955 -1897 0
3545 1926 6586 0
-4794 -7628 2937 0
-3752 1966 -8723 0
-9627 6985 -9683 0
5595 422 -4385 0
6536 -4713 -2733 0
1211 9073 8196 0
-7516 -4837 -1156 0
7069 -8850 -7277 0
-586 9775 5882 0
-9000 -5937 -1252 0
-7062 3033 -8658 0
-4955 7265 -3351 0
-9516 -7710 326 0
-6487 1904 -9307 0
-4333 7387 6515 0
-1043 919 -9977 0
3499 5573 -4762 0
9693 -3499 388 0
9565 -1648 -807 0
-9154 -4920 3087 0
-368 3560 1118 0
-6464 7896 -4900 0
9514 -4073 -5633 0
6205 -2789 5284 0
275 -3481 -6589 0
2512 3389 114 0
7808 -9694 1767 0
218 882 2036 0
-7270 -3080 4883 0
-8781 -862 3719 0
-2800 -5970 -3253 0
-7208 4481 4405 0
-9308 -2473 9686 0
-2646 9006 -5501 0
-8727 9710 8009 0
1378 6159 -2690 0
-1954 -245 -757 0
-9006 -2138 -915 0
1966 691 2855 0
-3152 9106 394 0
41 -4966 -5958 0
4883 6911 -4878 0
-6200 -2303 2042 0
-9460 -2762 9864 0
756 3052 5685 0
-2384 910 -2563 0
8969 -8166 -371 0
-9437 6754 3283 0
6985 6690 -8045 0
-1032 5097 6337 0
7717 -5617 7261 0
-3720 -8792 -687 0
-5769 4650 -5548 0
4406 -4673 6416 0
-9664 -3727 9791 0
9240 8523 -8081 0
-4143 1696 -6672 0
5051 8068 -7311 0
-9236 -3731 -1509 0
-4408 1971 -260 0
566 -6210 -1893 0
-1191 3745 7689 0
1003 6721 -2964 0
1322 2044 -3274 0
-2106 739 5345 0
-1198 -4788 -4571 0
1713 -2449 7815 0
4223 7375 -5321 0
8665 2987 -9682 0
3456 3791 9497 0
4854 -2224 2579 0
-8262 -2194 4341 0
-1137 3353 1659 0
-1716 4917 6837 0
-833 9178 -8734 0
-4896 9404 -2754 0
2832 -7126 -4388 0
3440 2725 -4292 0
-6569 6905 -7183 0
3604 597 2880 0
-6699 8671 -6329 0
-2184 -7633 -4857 0
9760 -3623 9187 0
8312 9360 1534 0
8352 -9036 264 0
-5236 -9148 4051 0
-9215 -9012 -2284 0
5868 6362 -75 0
-693 2659 -4317 0
-9268 4032 -4130 0
6744 -9156 -5412 0
6113 -8435 6817 0
-7373 -5313 -8155 0
-6416 2328 -9447 0
3639 -3657 5586 0
-6823 -7461 -732 0
-4398 8698 -2574 0
7774 -1100 -8075 0
1273 -9323 -5541 0
7934 5164 -941 0
-7590 -5819 3389 0
-9776 9462 50 0
3325 9060 8227 0
-9130 4691 9833 0
850 -3441 -6207 0
4411 -7959 -6759 0
-848 8221 -8268 0
-8030 -9445 7510 0
-8993 4556 -7208 0
-5864 9453 2823 0
-1988 6979 4267 0
-9019 -7191 5517 0
-4769 -5313 914 0
9519 -1192 -3935 0
-8771 2852 -3500 0
6973 -2287 4858 0
-6785 856 4997 0
-2981 -6510 9079 0
-8132 6948 -3717 0
-7143 -4889 4979 0
6879 3143 -5667 0
-8000 4824 -1379 0
9576 9393 -5458 0
8726 -4901 -7946 0
-5244 -4099 -9518 0
210 1106 -3854 0
-5331 463 -9256 0
-4967 -8531 8413 0
-2662 -2847 -7826 0
-3331 2109 -784 0
-8181 -7783 -4918 0
-3608 4947 8565 0
-1174 -1886 8106 0
8968 792 -3457 0
-6583 -5892 -5446 0
5859 -9859 -6062 0
6740 -3055 1783 0
-6328 -1842 2704 0
-5253 6687 1702 0
-2875 5756 -8742 0
-291 -362 389 0
-1842 6367 9641 0
-3437 -2583 5852 0
9866 7285 9992 0
8527 -6201 7084 0
5371 -5269 728 0
-6261 6363 7740 0
9968 2604 -5145 0
6190 -1404 5411 0
-854 -5922 -8128 0
-7225 3698 -2590 0
1400 -5889 8578 0
-4845 3817 -9010 0
-5621 -9929 -4481 0
-4172 -6160 -3801 0
-3222 -2425 4381 0
-9570 -3928 -5560 0
1275 9582 -5390 0
-9467 4894 439 0
9288 -5861 -498 0
-3022 8946 -399 0
5112 6912 -4004 0
-853 9549 9634 0
-2973 -4833 8400 0
799 1204 -2737 0
-2112 -1527 -8892 0
8151 -300 -9835 0
6682 8994 3581 0
-1132 -6477 3372 0
2715 -6974 -2600 0
1378 -2202 -824 0
7182 749 9049 0
-7269 3674 -665 0
-6810 -2573 3287 0
3121 1400 2577 0
5669 6856 7391 0
-3317 5866 4616 0
8960 8456 -3720 0
8734 -5613 4652 0
2777 2229 -7474 0
2703 24 7104 0
6242 7441 -8328 0
6482 -8571 8152 0
-8368 -8661 437 0
-9757 5747 -2639 0
9561 8329 -3060 0
-2583 4830 -9994 0
-1191 4633 9900 0
-5644 6319 662 0
-152 8597 4124 0
7138 -8910 -9621 0
-6791 -6005 -5243 0
-7738 -3732 4407 0
-2166 7164 4072 0
7453 9109 -8538 0
5808 -5050 -3068 0
2483 782 -4977 0
-3997 -8043 -5637 0
-1396 4097 2042 0
-9953 3932 7288 0
69 -4058 9969 0
-6842 3502 -7846 0
3035 851 -6469 0
-9421 -1630 5168 0
8072 2525 -2962 0
4402 -2542 -1186 0
-8506 8053 4485 0
-7367 -7784 -5464 0
21 3583 -284 0
-9916 1146 9837 0
6793 -8942 5790 0
-1106 9758 -10 0
-4054 2104 -6514 0
-7026 7712 8917 0
1153 1242 5770 0
168 3232 3755 0
-2225 -6387 -9867 0
2677 7594 -8850 0
1802 8239 3186 0
-2489 2207 -5413 0
990 -9945 -107 0
-9542 1355 6537 0
-9118 4368 -9502 0
3022 3559 4687 0
2838 -5029 -2702 0
-8084 1805 4651 0
7238 -6078 -9576 0
-9738 -5580 -6811 0
-7743 -6917 9881 0
-3181 -2064 9111 0
-8850 6392 8695 0
-323 -7548 1884 0
9528 49 7885 0
8200 -5920 -4930 0
-7586 7175 -7867 0
2931 -6737 -2141 0
5197 5747 -523 0
-4763 -6331 -4143 0
7453 1283 2593 0
577 -7390 6416 0
-8237 -3241 4022 0
5293 -4905 -9304 0
-7763 -1571 3631 0
931 -3400 2266 0
-5567 -2561 1757 0
-3368 49 -8432 0
-7668 3381 -2295 0
2239 7570 6161 0
-1502 5891 1379 0
-7462 -2104 8608 0
6677 4352 8391 0
-470 -333 -5076 0
-1276 -48 -2760 0
170 5813 -9745 0
-1672 7930 6896 0
8123 -1242 5941 0
-6683 -6442 9289 0
7914 7415 4220 0
-2520 -9031 -6181 0
-5519 -3192 9516 0
4936 -8459 -5697 0
-7734 -7950 -5775 0
4803 -9438 -6224 0
7183 -7346 -9575 0
7926 -3085 -7422 0
-3679 -9960 -1706 0
1722 -6702 7272 0
9841 3051 -218 0
-7140 1202 -8457 0
-4565 6322 1026 0
-138 -366 8877 0
9830 -6186 857 0
686 4703 3806 0
-2921 9408 1642 0
792 5184 4906 0
5052 8238 9129 0
-7987 -5262 -6290 0
9589 -2830 -8611 0
3137 841 8504 0
1593 4041 7998 0
1518 6238 -6062 0
9106 8570 8182 0
7854 -5591 -35 0
5420 2183 7661 0
-3762 -3832 -699 0
-9105 -516 -2912 0
174 -8338 -1601 0
-6425 8134 5113 0
3306 7408 6403 0
5675 1165 8333 0
-5310 -4608 1249 0
1660 -5309 -8134 0
3892 7847 9724 0
893 4495 6384 0
-6327 8783 -3658 0
-9847 492 8153 0
7104 -2211 -3935 0
-1509 -6245 6106 0
-7716 2508 7527 0
-8466 2130 -8388 0
1003 -2488 -7790 0
-4362 -9743 536 0
9450 7543 -950 0
9643 -4297 -1973 0
682 -1650 -2205 0
9045 -2778 677 0
9623 -3257 1852 0
3247 2052 111 0
338 4405 -1230 0
1529 7345 327 0
2574 -2479 -8891 0
9135 6664 996 0
-6676 -4569 4734 0
-138 19 -9538 0
-2209 -4617 1906 0
338 -9693 3425 0
-6134 -3945 8280 0
-7293 -2571 9987 0
-9080 4994 -4255 0
-2233 -8746 -9326 0
7126 -8112 -2502 0
3782 -1913 -7544 0
-3349 -3350 1219 0
2911 857 -1559 0
5006 -9773 6581 0
44 -5373 -4556 0
-9932 955 7460 0
-8998 -8933 1783 0
4292 -2888 5976 0
9621 -9435 9061 0
9492 5541 -3214 0
-8995 2584 5628 0
-4201 1430 7009 0
-6639 -2387 8256 0
9625 1693 3476 0
-8018 8694 8087 0
-2305 4548 -4576 0
4982 2198 7642 0
-8954 9994 7986 0
9910 -1928 9944 0
-5303 -6518 -1102 0
8818 -1122 7748 0
-2414 -2178 4551 0
9941 -4159 6116 0
-8344 5906 8123 0
5040 -1772 -2635 0
-5311 8341 6458 0
3242 635 -5623 0
7508 -1288 3172 0
-2221 -2093 -8079 0
-8790 4604 8137 0
2212 5344 -2486 0
1172 1975 9991 0
4658 -1517 5925 0
-6857 5447 -8851 0
6175 3686 -9551 0
6254 8450 6740 0
-7252 7609 -1580 0
-4207 622 -9354 0
-2338 -6186 2787 0
-9290 -679 -5764 0
-9996 -1221 -5424 0
-7598 8312 -3722 0
-90 -7274 7340 0
-3645 1150 -4944 0
-4148 6787 -7248 0
4431 2272 -8819 0
749 -1985 7080 0
2040 2581 -7827 0
-6645 -2973 -360 0
3523 1220 -3780 0
-35 4142 4188 0
-2533 -76 1749 0
-7039 -7453 -115 0
-334 5623 -4465 0
3199 -6075 -233 0
-1425 -771 -9173 0
4315 -5276 4763 0
-360 -2492 2818 0
-414 -9400 9970 0
3629 -256 5560 0
9857 877 3575 0
3592 -9311 4313 0
-727 -8567 1687 0
8305 -4920 -7173 0
6606 5368 -3461 0
4637 2186 -6206 0
2425 -6835 -5761 0
6914 2449 -9434 0
-6374 -4200 8326 0
7303 -4749 -9476 0
-2492 8753 9734 0
-4237 -9521 2267 0
-7240 7387 2150 0
-8334 -1399 9769 0
-4778 2117 4196 0
4567 -5109 -236 0
-6590 7327 -2324 0
-9699 9956 -7761 0
86 -9525 8177 0
5874 7790 -2021 0
-8440 -9177 -7456 0
3962 -3101 -7899 0
-6978 5815 1428 0
-392 6326 -6683 0
-4706 -4324 6160 0
5608 -217 606 0
-511 8821 5856 0
-9400 1782 -2661 0
136 -6473 -5348 0
-3389 8258 -8062 0
6814 -3815 1457 0
-4123 5759 -3402 0
1527 4397 587 0
-5162 -4201 1583 0
2144 -9357 -6308 0
3633 -4176 9670 0
-8217 2168 1955 0
-8433 996 -3803 0
-9945 7622 -5450 0
3692 -5457 -1276 0
-2947 -1828 -3506 0
-3709 -8438 -4262 0
-1969 4752 8264 0
7620 5036 8291 0
-2221 4871 -4110 0
5675 3237 -6609 0
-6250 -2131 1920 0
-6792 -294 9348 0
-755 -9704 6715 0
-32 -7819 -2385 0
8930 -9653 -7509 0
-5084 -5416 -5520 0
-3353 2639 4059 0
-2711 -9905 -6923 0
106 -337 -916 0
5464 8200 -4708 0
-8672 -4080 1957 0
-6780 6077 -532 0
-6322 456 -7356 0
2190 -14 -6578 0
1391 9874 -957 0
-9041 -598 -8898 0
-7618 4226 -1156 0
5830 6243 -9454 0
5887 -6836 3481 0
6971 -7428 6640 0
9325 -566 7776 0
-686 -2229 9461 0
-884 -6912 6204 0
-2715 -1554 1584 0
-4365 -1847 9043 0
5019 1410 -3299 0
6912 -1454 -2911 0
-489 648 3575 0
-3270 -540 -415 0
1782 -4828 1631 0
2055 -4412 1911 0
3751 3902 -7485 0
2246 500 -3413 0
311 -1931 -3374 0
4461 6748 -281 0
8820 -3893 1500 0
2724 -6112 -2768 0
1995 -5365 1302 0
-6988 4044 -8693 0
-7691 3260 1768 0
-9681 -1957 -452 0
7358 4863 1034 0
463 1608 8381 0
-3868 3863 -2585 0
3219 3159 -2745 0
3032 4678 -7710 0
-7911 4257 -1922 0
-985 8537 -2606 0
1957 -9510 5794 0
9679 -7548 5475 0
1993 6349 2698 0
6064 2060 5987 0
-1025 2878 3174 0
4615 9877 -5902 0
6085 -7847 -1205 0
-3996 9924 -5313 0
8460 -9810 -6371 0
-1211 -5264 50 0
-193 7550 -4533 0
315 8306 -5254 0
-5532 -1511 7242 0
-789 -7520 8882 0
-4620 2705 -709 0
-3846 5069 1438 0
2729 -3650 1082 0
-8017 5760 -5024 0
8458 6207 -2384 0
5122 3841 5554 0
-860 4175 1104 0
-299 7615 7910 0
-1515 6180 -4887 0
2636 -1578 -828 0
5849 2288 -7828 0
-7841 5005 1434 0
9879 -4325 -4568 0
-16 -1433 -2041 0
5171 -6207 5700 0
6701 9934 -4641 0
4070 4255 6892 0
-9220 -1467 8856 0
3821 -6461 2560 0
8661 -2545 -4567 0
-8873 4178 -8312 0
-7817 -6523 6860 0
-8224 9332 8865 0
-6602 1185 -3642 0
-2870 -433 -4727 0
-5080 8716 8825 0
-8971 5321 -2657 0
-4670 -9069 -6123 0
-3819 -3258 -4528 0
-2040 7821 -8691 0
7534 -5669 -7490 0
910 5461 3399 0
-25 -2795 8411 0
-8763 -5937 -4975 0
-733 -4242 3128 0
4719 4715 -6242 0
626 -9744 7256 0
-3216 3131 3055 0
88 4006 -4562 0
8643 176 -3354 0
-4749 -9001 -615 0
-7155 -232 -5922 0
-396 8434 1378 0
229 -9115 6882 0
192 3792 3418 0
2719 4558 5926 0
8914 -4549 -1502 0
-1198 4844 -8889 0
-438 3391 -1564 0
2239 -6219 -2262 0
-5730 -1689 -9511 0
-5664 -3305 424 0
5623 -9933 -4675 0
9404 5064 4780 0
3043 -6205 -6443 0
-4542 -3755 9247 0
993 -3364 -3677 0
9849 6118 5610 0
1550 -5166 1628 0
-6798 -4092 -6767 0
-1579 -8544 -5022 0
4123 -4609 -8414 0
-7875 1719 5261 0
-1341 -6414 6467 0
-5106 8217 -5067 0
-2133 -6268 7108 0
-3597 8435 -2668 0
-28 1432 -2924 0
-2510 515 -9526 0
-4684 -1042 8235 0
-2201 -684 8610 0
-2399 -7154 -2420 0
5552 -5639 -84 0
8875 8683 6771 0
-9425 -3184 -6047 0
1896 3841 -8778 0
-706 -6581 -4987 0
6416 7978 -2489 0
-9372 -3102 7005 0
-756 4808 1125 0
-5854 -6665 -134 0
-8304 9622 -7540 0
7839 3818 4455 0
-2444 8203 5109 0
-885 2381 7207 0
-714 6450 8830 0
6492 9448 6350 0
4391 -8892 1153 0
6298 -9293 -9715 0
6382 -9999 7456 0
6087 6064 8345 0
-9089 897 -3467 0
1815 6419 4658 0
-370 4354 7615 0
6720 4390 -9883 0
3750 -8538 4661 0
-9646 -8545 -491 0
8136 -6893 -8852 0
-1601 8214 2229 0
9802 7102 4309 0
-4774 -6103 -4413 0
-3913 -6521 9493 0
-7956 -4707 -7334 0
2268 -3328 -9457 0
-3950 8846 3555 0
-9227 5437 -9361 0
-9550 6417 -6797 0
-8556 -9736 -8826 0
5778 4842 8918 0
9141 8842 3624 0
8477 -653 -5498 0
-8616 1891 7766 0
3524 1675 5102 0
-803 -7230 9230 0
1205 -3978 -2413 0
-4357 4163 5226 0
5066 9885 -6230 0
-5387 -9918 -9163 0
8482 -3459 -9535 0
2262 2559 -6349 0
2711 -7764 -1293 0
7345 -8266 -8074 0
7086 -3508 3711 0
9905 -2030 -110 0
7721 7342 9575 0
-4647 -5847 -8710 0
-9183 7957 752 0
4320 6714 8291 0
6346 -5837 2831 0
2381 -2509 -1816 0
7285 -9945 -1701 0
-9361 4790 -1125 0
9287 -7738 2349 0
4942 2657 -3672 0
-8 -857 -5812 0
7877 3890 -2835 0
-5630 7589 -3064 0
-1474 158 2119 0
-3282 -7196 7867 0
-5728 -1935 3257 0
-4500 402 5400 0
9911 -337 2498 0
-1589 5239 -2716 0
-7014 4186 -2289 0
-6076 3613 6906 0
8334 6233 -2471 0
-1974 6954 -5193 0
8204 5837 -8499 0
-2878 91 -2741 0
-737 6180 -2272 0
-389 8915 -1128 0
3199 8522 1862 0
7060 790 2355 0
-1185 6619 5049 0
752 4727 -8121 0
-1774 4496 -2303 0
-9929 -3107 6578 0
7334 -5742 5172 0
-7631 -6047 1201 0
-3532 6625 5605 0
8449 -1519 2034 0
-9377 -7085 -4255 0
2864 576 9951 0
6899 1028 8971 0
151 -421 -7788 0
-7041 -5038 6779 0
-8243 -2285 5138 0
1889 8284 -4558 0
4120 938 -5015 0
-8790 7973 9038 0
-4022 8263 -7648 0
8464 3244 2709 0
-8101 832 -5862 0
-9584 -6280 -6156 0
2094 1551 8873 0
-4178 -4528 -713 0
1881 -8921 -8966 0
-3865 9544 1578 0
3522 3412 -8397 0
-7744 6821 8994 0
1665 4155 -3738 0
-3780 7363 283 0
-6463 -7187 8012 0
6070 6665 3033 0
-2467 3608 3651 0
-6982 8068 -5202 0
-596 -1404 -81 0
3181 6451 9377 0
3598 -1438 9337 0
7756 -1889 -946 0
-9434 -9908 875 0
-6758 -9184 9827 0
-6620 -2902 2514 0
8565 1683 -1676 0
5993 -6672 -556 0
-929 -3076 6 0
-5714 -8141 6954 0
8177 -6941 2859 0
-7891 7112 -700 0
-2373 -925 -3226 0
-5419 -6239 9029 0
3370 -9817 -9144 0
268 -2529 3694 0
1810 3010 9679 0
2187 -5440 2425 0
5758 3439 -3287 0
3378 -5942 -1378 0
2173 4319 -6062 0
-4696 3103 -8765 0
-8556 5913 9980 0
-2065 -3293 -9448 0
433 4343 -1605 0
-4826 -4494 -4298 0
-81 -8614 -1634 0
-1957 4245 4542 0
1533 -6333 6233 0
-2688 2214 -4991 0
-7771 2199 -6198 0
7520 -3211 5198 0
-3458 8928 -6409 0
-715 9180 -7216 0
9975 -4889 7167 0
7923 -8267 5608 0
-6588 -3414 -5992 0
9889 -7190 137 0
3865 342 3145 0
-5800 -3216 -6720 0
-9810 7499 1561 0
1556 -2416 585 0
-5805 8128 -8373 0
2773 -7979 2288 0
-6052 5351 -2127 0
6730 -8831 -6561 0
6985 6951 -1244 0
-8509 -4976 3556 0
-7924 7307 7370 0
-8100 -9263 -3787 0
-3711 8221 5915 0
-1572 -807 -3683 0
-6352 4950 -6681 0
-6271 2007 -1083 0
8062 9137 -8158 0
4862 2646 -5760 0
-7265 349 -7954 0
4389 -9410 2649 0
5518 4720 3858 0
1499 -1235 -943 0
-2177 -6623 6826 0
529 -3232 -8657 0
-580 -920 -4972 0
8854 7738 -2890 0
7233 6418 1222 0
-2350 -5361 -676 0
-4207 -1236 6208 0
6971 8459 5937 0
1238 1856 2673 0
-2504 -5211 3395 0
5639 7224 9634 0
-1247 -9279 -868 0
-284 9059 5203 0
8143 6776 100 0
-7505 -6945 -5115 0
1439 -6435 -3636 0
-6736 135 -6493 0
-8972 8168 1971 0
-5483 -356 2045 0
-3201 7083 -6164 0
6376 3039 4947 0
-7196 7586 -3494 0
6981 7091 -821 0
-1752 -3262 4772 0
-8468 -8650 -9624 0
-559 -5867 1650 0
5377 8316 -75 0
-3765 -4027 3980 0
1094 -6373 6506 0
-3993 6349 5121 0
317 2703 -2257 0
-5943 -7256 2007 0
-3025 9504 2176 0
-6022 -3104 2460 0
8339 5714 8623 0
-2048 6903 -4362 0
-5571 -4269 8199 0
-7244 1671 -9440 0
-1472 7908 -3884 0
-3430 -5385 -5005 0
8574 -1320 7627 0
3664 -833 -3503 0
-3884 6447 -9466 0
-9317 -6256 3667 0
9791 -286 -4371 0
-6405 -5612 -4075 0
-3521 9593 -4178 0
-7755 -6828 9056 0
9433 1758 -7824 0
6218 -3892 -6156 0
6686 6417 2893 0
5571 5779 -4750 0
6850 4662 -165 0
2171 4947 -9031 0
-4539 -1700 -9287 0
-2015 -1043 -5411 0
4582 2916 -7377 0
7166 -6843 759 0
-5446 888 -7496 0
-7193 -662 6202 0
9144 -5615 9135 0
3770 -7151 -1317 0
-6431 3547 -7736 0
304 -5812 -5834 0
-8346 -526 9345 0
7217 1109 6269 0
-4209 7609 4661 0
3221 2265 1025 0
-9472 3503 -1097 0
-1901 8751 2076 0
5287 -5994 9043 0
-8091 -8081 -5879 0
-9744 -929 653 0
6224 -6291 -5215 0
-5957 -7707 429 0
2669 -4979 -6167 0
-9890 1703 4811 0
-6623 -1545 8704 0
41 137 -9503 0
-9004 8136 -6123 0
8882 8760 3743 0
2237 4142 4877 0
-4034 -7107 -157 0
-8472 -2959 8880 0
307 2226 4540 0
2046 -6720 -6359 0
-2826 5567 -4431 0
1359 7571 2952 0
2903 -6346 -281 0
-4574 -9744 -1423 0
5818 -7240 5757 0
-2934 1303 -6266 0
9505 5466 1901 0
3223 -7573 -5984 0
-1349 2818 -1017 0
6836 -8032 -5019 0
-8707 -8572 -7179 0
9476 -3132 -4802 0
5018 -9103 6454 0
-9849 4857 -4688 0
-6371 -5115 7893 0
1802 6930 -7686 0
2315 -9790 8573 0
-552 8217 512 0
5116 9601 8909 0
-1957 -1782 -1149 0
-6380 -2619 4501 0
8119 -9181 2655 0
9113 2761 -7207 0
-9973 1401 6865 0
1915 -5878 -338 0
4946 -8394 1397 0
3551 3584 -9153 0
-6509 -936 4384 0
-1325 7898 1776 0
-4968 659 2937 0
-3988 -3996 9562 0
8545 -9115 8532 0
-7267 -5777 7919 0
-3488 6254 2503 0
-7978 -4617 7940 0
6650 878 -9955 0
-7171 -4220 -8368 0
1548 -6582 -8492 0
-9788 9757 -7709 0
-7439 -9125 -8466 0
-4595 9755 -9632 0
6972 5066 22 0
-6654 4813 707 0
6005 -1738 -309 0
-8752 -1731 7534 0
-886 -5030 8489 0
-509 7266 731 0
1870 784 7692 0
1299 3690 -1311 0
3726 3655 -4886 0
6108 3312 -2821 0
-2330 -4996 -7490 0
-2691 3474 -5452 0
2971 3390 6223 0
7726 1353 -3878 0
7424 7301 -5400 0
6189 -6638 -5773 0
-6733 -2664 -2985 0
-384 250 -1416 0
-3393 -4477 1594 0
960 -6724 -6997 0
3004 -3542 -2962 0
-5963 7373 6216 0
-52 9308 2470 0
960 8525 8934 0
-4717 -1948 3860 0
5465 1250 -9800 0
6787 1276 2360 0
-136 4774 -7506 0
1027 3268 3881 0
-8755 -4839 -6671 0
8494 -335 8926 0
4680 9854 -1571 0
8908 -7736 -5183 0
7769 -2253 4547 0
-43 -1051 -5226 0
-4122 -8206 -2223 0
-9063 -5833 171 0
-3557 -9766 695 0
-5425 4763 1257 0
7190 1024 -210 0
-7556 6835 5752 0
2580 567 -1376 0
-4456 984 3691 0
-2654 7883 -2144 0
2562 -3052 9635 0
137 2005 6826 0
901 3245 -2810 0
8261 -8043 5491 0
-787 8646 5978 0
9516 6593 6837 0
8190 -4296 -428 0
5858 1890 -1573 0
5586 5136 -209 0
-1009 -2719 1125 0
-468 9873 4594 0
-9480 1492 -6631 0
-1168 -6416 -3927 0
-5557 -5805 2961 0
-3468 3507 -6220 0
3127 -2261 7996 0
1004 625 8487 0
5890 -8475 -2463 0
-4188 4325 -8474 0
7069 5905 4358 0
9258 1407 986 0
1636 -683 6687 0
2230 -3754 -398 0
4201 2010 1233 0
-3503 -5326 -3582 0
2994 -466 8442 0
-6676 -7936 5527 0
7115 -8970 6711 0
-209 -9708 7103 0
-9693 -6882 8622 0
7381 -6439 -4274 0
9577 -8261 1908 0
1003 -6183 2251 0
698 1541 6732 0
6216 -7084 -8663 0
1859 621 3995 0
-3145 -2924 7023 0
5205 1533 -9988 0
-9887 1648 5712 0
-8917 3455 -2385 0
6500 1431 8390 0
-8807 -3998 -9842 0
517 -4115 9682 0
744 7796 7074 0
-6117 -4150 971 0
4371 -2889 3543 0
-3672 -6915 -8913 0
6468 -1151 -3653 0
-6089 -8293 8416 0
808 267 -7941 0
-9356 2255 -5333 0
-1791 8413 -6268 0
8015 -4163 -3127 0
-8783 3539 -4423 0
3603 8095 -3575 0
1551 -4015 278 0
6714 6939 214 0
-1072 6063 8581 0
1306 9221 4965 0
5713 -4523 9021 0
-4505 3907 2372 0
7496 -7832 -5610 0
5298 4328 8774 0
7965 -5102 6988 0
-3467 -6878 8289 0
1364 104 6644 0
8648 7079 -6886 0
-9436 -3245 7991 0
3383 5933 -1670 0
-8587 2430 -3214 0
-2480 -794 6199 0
-23 7563 -3901 0
-9023 2052 8876 0
9231 -9442 8613 0
-2298 -5852 1004 0
-9450 3770 -7874 0
-8982 2088 -8563 0
4855 7576 -2319 0
-3128 -3171 -2191 0
-8228 -5164 9547 0
-8342 8758 -2079 0
-8765 4462 -8409 0
-5505 2905 -6423 0
-6771 5405 -8852 0
-5486 -4902 -6496 0
666 -9537 2867 0
-6923 -3504 7034 0
-1224 1528 4733 0
8074 7763 8072 0
-2292 -5686 -6343 0
5088 -8493 -3058 0
-7668 1301 7984 0
-728 4446 -8484 0
-6989 1329 -5084 0
-2972 5193 8802 0
8581 -3536 -5749 0
1911 7124 2043 0
-4552 -7222 -6839 0
1843 2858 -9509 0
7031 9519 -6659 0
7661 5892 -2977 0
-8213 -9297 -9578 0
-2015 6303 -1433 0
-2258 -9975 -6808 0
-6997 -2996 3794 0
6911 7183 6844 0
570 -3850 -1942 0
3446 2453 6901 0
4711 -4226 4796 0
-6253 4389 5667 0
9090 204 -8956 0
7817 -9771 5683 0
-4927 3212 -1310 0
-362 -4584 4570 0
4501 550 -152 0
2150 -6703 7365 0
9603 1016 -3588 0
2190 5731 -6363 0
-2219 -9123 -8063 0
-5352 7111 -6175 0
-6077 -2753 7132 0
211 -4253 9887 0
8832 -1729 -4630 0
-757 2188 9296 0
-5540 163 -4186 0
-5695 5669 -334 0
8502 -7009 -4812 0
-640 -264 541 0
1021 5873 -2642 0
-6429 -384 1807 0
-6326 -2348 -6575 0
-9947 641 -5812 0
-2798 1283 886 0
9295 -7596 6118 0
-8219 3604 4554 0
6193 5985 -4414 0
3603 1989 -8497 0
8957 3880 6379 0
2318 9700 9442 0
-4363 8736 -1498 0
5315 9888 -717 0
-7772 8427 -3950 0
9616 9663 8539 0
-7936 8379 359 0
1043 -6979 6567 0
3582 -7240 603 0
-5457 -6832 3147 0
2048 -5270 6543 0
73 6032 -5158 0
2806 -8294 6704 0
-8715 1046 -5489 0
-7146 7852 -5200 0
8510 873 8696 0
3289 836 1878 0
-6538 -3689 8040 0
849 -560 5964 0
-2705 -712 6228 0
-2608 -7687 -6887 0
-8727 7994 4795 0
698 -2967 6664 0
472 4074 -8141 0
-9705 1594 -9586 0
-7602 136 -5598 0
701 -6810 -6513 0
554 8613 7792 0
963 -7354 -1568 0
2998 -1516 -985 0
3313 -4034 691 0
-3804 -4369 -3939 0
-29 4592 1895 0
-4029 1803 3946 0
1409 -6350 -8756 0
6201 9465 557 0
5704 -4208 -436 0
6011 -4124 8221 0
7077 -1606 -8425 0
2425 6689 -7830 0
-1851 735 6460 0
690 -1048 2282 0
-5543 -2819 -9239 0
263 8509 9468 0
-4462 -8559 9494 0
5826 -7966 9035 0
-8888 -8115 -9761 0
-1910 -4145 540 0
2418 8190 -9741 0
-820 1739 -3186 0
4556 609 7328 0
452 -9159 5183 0
-6611 127 7923 0
9693 1872 -1668 0
-6236 -6968 6500 0
1623 -462 -1766 0
9068 73 -2960 0
-4254 5441 7315 0
7256 8260 8486 0
734 4908 -9854 0
-6126 -3458 9640 0
-31 9139 2771 0
9685 8192 805 0
1301 -119 7654 0
7796 6856 3573 0
-297 -9414 -3035 0
2522 -9169 -1286 0
6598 8149 3102 0
8139 4135 2702 0
-2662 -7449 8057 0
-5751 4812 -1808 0
5515 -9030 4281 0
-3859 1173 3716 0
-919 1321 3365 0
-4419 -7984 -8946 0
-8177 -4562 -8351 0
-8818 9189 9558 0
-4772 5830 -6150 0
-5354 -7716 7821 0
244 7877 3380 0
4681 4745 9876 0
1278 -4932 -7797 0
4570 7029 4329 0
8613 4807 -2611 0
-2393 -646 1728 0
1896 1317 -4377 0
-4905 6293 -192 0
4222 2642 9049 0
9701 -7815 9543 0
245 -7621 5279 0
-3576 -2499 2039 0
2740 1000 -4745 0
8251 5569 -4557 0
575 6130 -2318 0
1473 699 5254 0
7899 5796 1138 0
-5295 -6627 454 0
6921 -5890 -5498 0
9195 4153 -9494 0
5004 3810 -8071 0
-5574 8047 -9077 0
-8272 7077 5771 0
2377 5539 3835 0
-2174 -5818 -9339 0
9997 -4041 -7868 0
8109 -9368 5726 0
-2909 9290 -176 0
7447 8829 6123 0
8654 2296 -2631 0
3503 -2429 4676 0
-1023 5605 -9244 0
-4379 -8944 7816 0
-2543 -3295 9460 0
4730 8494 -7060 0
-2027 9693 7981 0
-526 -8912 6806 0
1086 2551 20 0
-4381 -774 7737 0
2522 524 -4822 0
6534 -828 -1184 0
-4101 9381 8339 0
3185 -879 5469 0
-6077 -6997 7733 0
-7579 8189 -4785 0
-2287 -8593 -5655 0
6807 -8074 7871 0
3853 7519 -5807 0
-4038 8287 -7606 0
779 -3453 4111 0
-7055 7145 7920 0
-6803 -6620 9035 0
-6409 3855 -9483 0
202 -2882 -5083 0
5260 -133 -4200 0
-8384 680 5987 0
7941 -8890 382 0
2991 -8998 7096 0
6628 9974 -4403 0
7202 -3594 -4919 0
8418 -7466 -4381 0
-3465 4874 9738 0
2807 -1257 -7001 0
-9964 4654 241 0
-3979 8645 9847 0
9562 -8698 3900 0
2489 3972 -7355 0
6491 -9750 3081 0
4377 -9603 -493 0
5881 -8211 -9107 0
7536 6192 -3739 0
6871 6326 -1273 0
9296 1826 3029 0
3408 -1551 1893 0
-2876 -1807 -1276 0
-3880 8124 2935 0
916 6639 -4884 0
2740 1856 -7912 0
2620 -5965 9772 0
5405 -8044 -6052 0
-2531 -4999 5398 0
-3261 7318 -933 0
-9503 9742 -5108 0
9776 4912 4062 0
2379 -8456 -8968 0
3926 -6172 3924 0
-5862 -1853 9894 0
-4853 -254 -5117 0
4224 -5413 -5563 0
-6729 -2581 5578 0
4296 -676 -4973 0
-7935 5878 6355 0
-8674 2715 -9608 0
5402 -8538 7376 0
5620 3502 -4030 0
1123 -6788 -2716 0
-9607 -3737 5084 0
-4246 -4954 6755 0
5692 878 -793 0
-9582 -7249 -2812 0
8136 -3451 4781 0
-4467 -6556 6592 0
4889 -2386 -3694 0
-3104 605 5383 0
-3785 -9759 -6513 0
-3090 -4615 -9158 0
-6552 -5184 -5631 0
-2415 -7131 8690 0
-6774 -4819 8953 0
-1767 -1431 -5673 0
-9354 4206 7177 0
6803 -2700 -2993 0
1052 4262 437 0
-4665 828 4427 0
3552 -750 3176 0
3074 7355 1992 0
-2344 -3054 5041 0
3759 803 -2921 0
192 -5247 987 0
-1974 -3529 -8809 0
2417 5244 8665 0
-2153 -1278 -5627 0
-8220 4139 -8985 0
-5705 4244 6260 0
9827 -3881 1947 0
-9389 2301 -891 0
-2335 1733 -1454 0
1165 -6842 3948 0
2844 2680 -7058 0
-9089 8822 5101 0
-700 7721 -5308 0
-2933 334 8651 0
-6496 5455 -3136 0
633 4003 -4227 0
-1161 4492 140 0
9727 -2527 5148 0
-8966 -5163 2437 0
9899 4340 -8050 0
-76 3162 3114 0
-7156 -875 -9271 0
-149 -2504 -7718 0
-5663 -1930 -5058 0
-7673 -9607 -6066 0
-6933 -9385 9008 0
-6623 -2448 6281 0
-5818 8007 9325 0
9502 -1808 -3493 0
5571 9942 4289 0
5950 975 -531 0
-7510 -8845 -8291 0
3526 3480 2285 0
541 -5814 -9141 0
7178 -8752 5825 0
-4768 -9636 2294 0
5784 3848 135 0
7693 8420 222 0
1826 -3624 -6346 0
4449 -7360 -5498 0
-7371 9700 4904 0
-7861 7125 2621 0
6895 8584 -7114 0
-5369 9822 7597 0
-3489 -4221 -6939 0
4877 7218 -6922 0
-2619 -3835 -9619 0
-304 -9335 -1206 0
5752 6730 -6018 0
54 8086 -8204 0
1219 -6198 9043 0
-1685 -3975 6843 0
-4944 -6382 5551 0
590 -6008 -8691 0
-3570 6692 7761 0
8978 -6033 -2711 0
-9995 2934 3412 0
-7687 -4776 7234 0
-5105 -7688 -9590 0
-210 -651 8376 0
-8030 6965 -4191 0
-5380 -626 -1713 0
-413 -2407 -7019 0
-5960 6719 -4062 0
-7126 -4226 5655 0
-6286 -1583 5597 0
-6792 7039 -8780 0
-4363 -3285 -2910 0
-5821 9109 7124 0
-3509 7328 9048 0
-3390 -465 -3001 0
3033 -2378 -7101 0
-8558 2191 -8707 0
-675 -1570 -4161 0
-2242 8668 -1613 0
-9111 -5006 -7764 0
3203 7868 6176 0
5845 2244 6581 0
-1593 8410 3107 0
-3234 -1620 -5488 0
-3333 2671 9417 0
-9587 4262 7412 0
-5173 -1167 -9662 0
-3009 6055 -1104 0
832 314 1943 0
-8982 8501 -9450 0
230 8581 -7854 0
-7221 7405 8889 0
-6136 5529 5646 0
-4849 -6414 2484 0
986 703 -642 0
-465 3657 2091 0
7246 449 6538 0
-6430 1189 108 0
4833 -7985 6199 0
-6700 -2278 8287 0
-5303 -5768 384 0
-9359 -7557 3707 0
3035 4476 -3883 0
8542 5051 -5766 0
2995 3816 -7120 0
-6613 1472 -4245 0
-488 516 2068 0
5231 -6670 8698 0
-210 8188 928 0
4764 -4979 8793 0
6026 9288 -7884 0
1196 -4303 -9750 0
6780 -2913 -2213 0
9772 9973 -6132 0
-2487 -3681 7552 0
-3724 9808 -9277 0
7286 5729 5326 0
-6074 -8912 -3977 0
-9212 -2594 7012 0
-653 4922 7015 0
5161 4232 3108 0
-5935 -2222 -2336 0
9825 3310 7532 0
-6992 1251 -6997 0
-7719 7833 -7722 0
8478 4127 -8428 0
9738 4464 4853 0
-8094 7503 -1968 0
3750 8646 -2257 0
-4883 6598 -1714 0
7826 1796 2493 0
-8056 780 -7261 0
-1345 5166 2394 0
-5507 3206 -6175 0
6657 7037 196 0
-1355 8956 1982 0
926 -6823 -5109 0
4814 -2585 -5551 0
-5485 3713 -559 0
-7645 -1098 5213 0
2419 -1321 -3766 0
8089 6203 -3325 0
5644 692 -7310 0
8502 3611 -7816 0
-3408 -5455 -920 0
-1789 8398 -2085 0
1471 -1157 3868 0
-7165 -8456 613 0
3905 8020 8344 0
-1760 5455 -6366 0
-8214 462 -2665 0
-9595 8782 -5573 0
-4386 1445 -4754 0
-6220 -114 -4622 0
-666 -6790 4796 0
-8517 -2361 -2535 0
-6617 -3575 -2742 0
-2474 -1230 8489 0
7249 -4444 3368 0
-7663 6396 -209 0
-5047 -8266 8270 0
-5871 -6697 7046 0
-9947 -580 -4614 0
1299 8918 3458 0
-1198 1202 7732 0
1542 -7964 1918 0
6590 5195 7824 0
6386 -681 2146 0
-2128 -4936 -8812 0
-9594 -7670 6836 0
3838 -2221 8972 0
3235 -2545 -8488 0
-2934 -6671 -2900 0
-1105 -3317 -2939 0
-6955 726 2280 0
8780 -4373 6010 0
3266 9102 4010 0
6998 5268 -5652 0
8440 -6722 269 0
-8537 -6088 8010 0
3938 -3455 1571 0
-5307 6678 7277 0
9158 2176 -2208 0
1594 2848 -1957 0
-8199 9131 9198 0
-3055 -2378 -2371 0
-2850 661 9171 0
5503 8103 -8971 0
1829 4421 -761 0
2250 3057 8052 0
7486 -8102 1332 0
4214 8716 -5033 0
1395 -3124 -1353 0
1648 -1597 -6649 0
-7140 -5330 9376 0
9452 7642 -3645 0
-636 7052 9827 0
-4737 3736 3999 0
-7795 -4436 2048 0
-1029 -9654 -3318 0
-8494 2601 814 0
3621 2610 7299 0
-2400 3574 6946 0
2173 7380 -4033 0
-62 8041 -2772 0
1923 1812 7751 0
-5724 -6242 2130 0
-3517 -6464 -7061 0
9601 5168 -8052 0
1737 -5301 -7237 0
717 4535 -5147 0
-7809 4802 4599 0
-985 8382 9178 0
2305 152 -3076 0
-854 2915 2436 0
7245 2744 6504 0
5539 5022 -4482 0
-8481 4739 -605 0
-4895 9792 -4736 0
-5732 -2197 5874 0
-5397 7115 -7294 0
-7209 1814 -285 0
-2094 6110 5511 0
2768 1211 1429 0
4317 -3840 7628 0
-9812 -7612 -3092 0
-5370 6425 1759 0
-3875 5297 -8754 0
-3992 -8822 -63 0
7519 800 -2038 0
7459 4793 1584 0
3950 -3553 7275 0
8892 -8031 -1241 0
4709 -8951 -2684 0
5557 -397 -4375 0
-3062 -3645 -6919 0
9257 3027 6487 0
6239 -2519 1497 0
5915 7308 -4409 0
190 3448 9671 0
5965 5706 1812 0
4414 2714 6713 0
-2573 9779 7468 0
7846 -5885 -1001 0
24 -2685 -2505 0
4934 -7882 9897 0
4825 -2537 -5084 0
7099 -3265 5851 0
-3574 -3783 2367 0
-4423 6019 9635 0
8806 3399 8137 0
5287 -2952 784 0
1902 -7067 -3335 0
-5877 6453 -23 0
-9900 5214 934 0
9014 -1948 2649 0
-5092 2505 -1323 0
7139 -6210 -3466 0
-5152 1739 2199 0
-6113 4516 -453 0
-8748 -7951 4058 0
-3293 8443 289 0
1492 -7775 5698 0
-104 -8200 -464 0
9774 4057 -794 0
-6444 -3264 -7349 0
-5145 -6883 -663 0
-1515 -3443 -1011 0
891 716 -201 0
-694 -6265 1154 0
5749 -4572 -1810 0
8512 -3599 7145 0
-5973 -9078 225 0
937 -7576 3439 0
-651 131 7330 0
361 -458 9845 0
1792 -6568 -9747 0
-1834 7298 -8949 0
1023 -8191 8073 0
5511 2754 5007 0
-9386 -6207 245 0
9215 4984 5940 0
-2080 -6890 -3506 0
327 7226 -2878 0
9290 -7675 8527 0
7669 -562 -5348 0
-3223 -6876 557 0
8920 4735 -9868 0
-976 2276 4295 0
-3746 -2830 -3257 0
6253 -8867 -2984 0
-9300 4684 -1671 0
-5530 9639 -2504 0
-4331 2005 -631 0
4116 4307 -3408 0
9233 7208 -4077 0
2272 -4731 -7354 0
-508 -9413 -922 0
6220 306 -9683 0
5237 8198 -9857 0
8775 -8540 -6547 0
4241 -2809 -6378 0
6455 8288 971 0
4738 -7771 4246 0
-3561 2451 -2041 0
537 9 9555 0
-6841 7035 9811 0
2331 6470 -2493 0
4489 9999 -2348 0
7303 850 -4043 0
-8650 -9265 1533 0
3861 7750 1684 0
1010 -6891 4010 0
-1113 -6835 3596 0
-1862 5513 -8170 0
-3220 -4691 5127 0
-1166 2163 -5129 0
-8592 -7364 2202 0
884 9754 -2556 0
7890 4872 -2643 0
1812 3272 9578 0
-6879 -6199 -2505 0
-5524 3449 5720 0
-571 -5650 -4232 0
-5754 2442 -5585 0
-7669 -1626 1879 0
-9094 -2988 -3606 0
-6335 -6111 -3658 0
-8836 9547 90 0
-4556 2974 -1756 0
1089 2401 -2971 0
-8092 -1747 5945 0
6690 -9978 -2946 0
-9065 -4143 -2447 0
7446 1410 -9383 0
2464 -1983 -4220 0
-8988 6648 4307 0
5667 1395 7548 0
8114 -7928 5108 0
9145 6453 -6725 0
-4704 3568 -7493 0
6514 1178 -2272 0
-187 108 -297 0
-9169 -8907 2740 0
-5288 -3009 3373 0
62 954 -9237 0
5611 7586 641 0
-5521 7224 -3897 0
9225 4901 3166 0
7758 4093 -3969 0
8404 -8300 -190 0
-8201 -9013 -4301 0
-4160 -5779 5832 0
-7980 1761 2209 0
8016 4398 -335 0
8622 -6101 -5969 0
1771 -8091 -4617 0
7908 -9663 6246 0
-5403 -3212 -2414 0
-271 -3266 -3672 0
9018 -6505 -2484 0
294 6032 -5014 0
-9004 -1349 -2201 0
1382 2374 -758 0
1415 3101 -3762 0
-8575 5344 9458 0
-5485 1229 -6648 0
2024 -7501 -3134 0
8666 3533 4481 0
-3865 -9207 1901 0
-9638 -6799 -8630 0
1828 5722 -8673 0
-9561 9648 -6861 0
7330 3843 3903 0
-3369 -5365 9928 0
-6925 2829 5601 0
-2451 1715 -2559 0
-3257 5112 8932 0
503 4682 6686 0
-2832 6926 2937 0
3985 990 460 0
-6378 9748 -6518 0
-830 -1585 7527 0
5895 1681 6766 0
5118 5901 5307 0
315 8311 4520 0
8664 -6585 403 0
3002 -242 -120 0
9088 5819 9799 0
-77 -2412 3811 0
5163 -2331 6314 0
-7991 8313 6805 0
-6859 -987 -1605 0
8833 6328 -9852 0
-8860 2022 262 0
7041 -674 2722 0
-4797 -8091 5959 0
-2511 9646 -1394 0
8729 -1283 -5308 0
6190 -8788 5587 0
2685 4112 5385 0
-1821 -8861 -1838 0
2946 -1924 -6227 0
8810 -4149 -3694 0
1975 9481 -8240 0
1399 8678 -851 0
-4921 -8743 -622 0
-7682 3843 -9083 0
-1947 -575 5830 0
-5786 -420 898 0
-5714 1624 -6588 0
8107 5697 -222 0
-8997 9544 -9302 0
-1337 -4451 3980 0
-5678 3813 -6428 0
3989 7822 -9048 0
6257 9554 -6310 0
-1691 1641 8997 0
-6990 -2906 402 0
9004 8930 3458 0
4123 3182 5530 0
-5638 -487 9514 0
-3051 3526 2454 0
-7929 -6554 7585 0
-8337 -3107 -4770 0
-7282 2693 4003 0
-1809 -8622 3469 0
5273 -6819 414 0
-2979 3565 -2335 0
8943 3799 767 0
4429 5736 9774 0
-9019 -990 -3235 0
-700 -3918 7429 0
1703 -6608 -7419 0
-6397 -6790 -1193 0
-7115 1789 -3940 0
-2899 -7263 2552 0
-7074 -2795 -1380 0
-9225 -4268 3487 0
1861 -5948 -6053 0
7745 326 7596 0
2252 5160 1172 0
5228 6700 62 0
484 -4529 -1305 0
9795 -9696 6464 0
801 -4892 -4817 0
5768 -4102 -5415 0
3848 3663 -4019 0
6537 6526 -6609 0
-4632 8456 -5785 0
-5739 1520 -3605 0
-7774 -3171 -4722 0
-422 6635 1950 0
-614 -6794 -6540 0
-3387 9012 7076 0
-5426 -3189 -4905 0
-6975 7133 -3291 0
-2308 -2018 3333 0
-3736 2357 -6983 0
9506 -9892 1794 0
3091 -6629 1122 0
5372 3824 -2521 0
-7375 743 9757 0
-5510 211 8966 0
-3301 1405 3579 0
1568 -8704 142 0
2891 -8478 -616 0
-2176 2655 3373 0
-1845 5040 4940 0
5037 -8571 2323 0
8484 9194 -1981 0
581 -9202 8024 0
-3770 3272 815 0
-7975 -1355 5932 0
-6688 -7194 -4194 0
7106 -8448 -1288 0
-1067 -7471 -4445 0
-2859 -4389 2636 0
-1062 -5573 3574 0
1964 -4632 8703 0
4585 -2730 -2027 0
9304 -254 7825 0
5696 -1774 4722 0
6599 5546 5674 0
-1774 -7173 -8817 0
8024 177 815 0
-6657 -4274 611 0
-3166 2618 -2350 0
-8516 -8307 5419 0
-5634 -3927 5205 0
5125 54 6170 0
-78 9731 620 0
-9785 -2123 -8450 0
336 -7408 -8441 0
-1355 -1320 -3341 0
5691 -6852 8967 0
-6975 4519 -1654 0
180 1876 -2224 0
-9482 -2526 838 0
9135 4496 -9236 0
1247 9969 7444 0
-2071 620 -7599 0
-7197 7751 1586 0
-160 9558 -4782 0
-1518 -9137 7434 0
-9026 -7355 7293 0
624 -2986 -7800 0
6388 581 3300 0
1417 -7413 -3207 0
6365 -9360 5793 0
-8969 8189 2127 0
-4178 -9503 -8872 0
-1172 -9711 4468 0
-2087 -9554 -3493 0
6679 3915 -9616 0
-5683 -4602 6348 0
-7183 -849 -4189 0
-1804 -3971 7369 0
8072 -6894 -5218 0
860 -9180 152 0
-8624 2877 7815 0
3080 4340 5160 0
9960 3540 2797 0
-3875 -5234 -8906 0
8025 -8371 -5538 0
3962 7147 4370 0
-3536 -944 9860 0
5986 -4492 -6093 0
-3335 -5085 -7907 0
-4888 -8069 7594 0
-8766 -9784 3375 0
-9354 -7541 6525 0
-1422 -1181 9948 0
7887 -3284 -4627 0
-2182 6665 -7102 0
5010 -3206 -6003 0
-4063 -2016 -6474 0
-3230 9890 -9625 0
4550 -7497 -5621 0
1675 -4604 3434 0
-6638 -8019 4629 0
-5247 -990 8222 0
6576 1532 4637 0
1228 1784 -4313 0
2832 3300 -8104 0
6061 -2938 -4024 0
-1397 334 652 0
1841 -2025 1536 0
1903 5670 2932 0
2109 -462 8830 0
-3174 -6920 1445 0
-1646 -7928 2821 0
-9807 9624 -343 0
6951 8353 -7985 0
8563 7287 907 0
7469 -7492 -7140 0
-9126 -480 -5456 0
-880 2434 7869 0
-9631 2816 -5824 0
-1192 2431 9705 0
4581 4668 6989 0
-3296 -1073 5572 0
-8157 6444 -6849 0
9295 391 -6808 0
-6031 6071 -8091 0
-4913 9310 -2844 0
6014 -2513 -2767 0
9033 -12 -3874 0
-1576 -6900 7039 0
-6275 -7382 7215 0
3065 -3829 -7283 0
-8067 6814 2666 0
7928 -8309 8505 0
-6095 -7971 2362 0
-2095 8590 -9394 0
3152 -5478 -2349 0
5230 -565 3783 0
1693 -3239 997 0
-795 9469 6454 0
-1054 2270 2387 0
3203 4066 -4702 0
5286 -8175 9860 0
9373 -6605 6431 0
4706 2161 -7401 0
-5641 -9035 4386 0
-5764 -1866 6358 0
8012 1303 -8862 0
212 291 1054 0
9217 -2603 6147 0
-2054 -1529 1152 0
-5856 -7299 -9246 0
959 6860 -5369 0
-8934 6708 -3465 0
-1150 -231 5545 0
-6235 -1583 -7039 0
4515 54 -7951 0
-7913 3236 6747 0
-5938 7502 -1696 0
7710 4825 6034 0
7976 -2123 -6415 0
3643 8049 3453 0
2238 -793 291 0
-2400 4844 -9134 0
-7106 3991 -4845 0
5275 2073 -9962 0
-682 -6672 2024 0
-5693 7940 -7700 0
-2109 -2692 -4785 0
-9647 5102 4318 0
-3188 -6233 1853 0
9159 -3212 -7213 0
6594 -9397 9993 0
-9497 -4573 3949 0
3960 -6379 8024 0
-9514 -1099 -9336 0
-9094 -3241 -4290 0
-9177 -5545 8153 0
-4804 84 9519 0
-5437 -1775 7213 0
-4620 1244 9133 0
-7196 3431 1599 0
-8433 -6667 6382 0
6266 5092 825 0
801 -7518 2107 0
-869 -1357 8941 0
2237 2740 7869 0
-201 -6724 -2996 0
7786 -9428 5549 0
4067 -1714 -5362 0
-9152 -9290 3631 0
-5456 -7310 -545 0
1232 9596 -6993 0
-7725 240 -8433 0
-5896 1987 -1606 0
-651 -1195 4728 0
-6285 -4809 8310 0
-3894 4147 -8275 0
-2646 9448 7177 0
3067 -1666 3530 0
3004 8393 -720 0
2152 -3668 7582 0
-8455 3900 -2408 0
4769 1395 1828 0
7139 -6279 -4021 0
-2268 8079 6620 0
2580 2714 -7739 0
-584 -5078 -6332 0
-5043 -6993 -8727 0
-5809 9180 -294 0
-1537 -785 -4685 0
-9154 2781 -6631 0
-1363 -3313 -3118 0
7754 -7668 2865 0
3247 1126 9179 0
-8150 634 -9002 0
-1911 7458 8542 0
-1862 -2772 -6357 0
6916 9063 3474 0
-4269 -6798 7394 0
-1329 -1950 1801 0
686 -724 2664 0
-1596 -5430 291 0
6182 -4763 4706 0
-3537 872 -7185 0
5954 915 -1402 0
9421 1975 -6971 0
-5403 -3613 -6263 0
6041 -1385 -3306 0
3350 2258 3820 0
-1532 -6005 -4996 0
4617 -7013 -8291 0
7539 -3905 9754 0
5987 -1555 165 0
-7234 7993 6998 0
8774 -8338 5392 0
8126 -9043 -6011 0
-7090 240 -5135 0
-3058 -2391 -1423 0
4570 7021 -4278 0
5820 3112 5376 0
4687 -4851 4488 0
7839 -7872 4260 0
-1261 5305 -6355 0
2281 -1525 4092 0
7404 9020 -2391 0
-5956 -2552 2055 0
9038 -8685 -2566 0
-4460 -8011 6644 0
6886 5163 -9304 0
7706 9193 -8447 0
8072 8802 -4267 0
7934 -8996 -9697 0
8130 9261 -2391 0
-4515 6664 -1418 0
-5536 8183 -1382 0
634 -9032 -2464 0
-1867 -9594 2048 0
-176 4813 8385 0
-1584 2975 8686 0
-7148 5753 3537 0
1775 -5063 2114 0
1190 -471 3578 0
22 7157 4180 0
5432 -2735 6612 0
-9784 -4297 -1655 0
2924 7853 6638 0
3644 8444 8081 0
6075 -5256 5416 0
-6168 633 9778 0
8982 3316 9239 0
9014 -1577 -5955 0
3984 1590 3767 0
-8893 7698 -9965 0
6685 -435 -9721 0
1968 -4957 -9306 0
-9973 -6390 -259 0
-9556 -649 -9439 0
4131 1432 -2260 0
-7457 3113 -3162 0
1638 -1592 -3424 0
8598 7966 -1116 0
6183 6759 -2130 0
7096 -5878 8216 0
-3525 1690 -6219 0
833 3563 -1802 0
1995 5442 -9735 0
-8654 -9955 -1599 0
-4204 -2825 -3384 0
-4080 -5456 -6267 0
1059 4462 3809 0
4028 -5694 -9148 0
2857 3295 -5 0
7843 -7447 6258 0
2867 -8460 -7747 0
-1150 1045 5424 0
-2907 -1167 -4687 0
-6186 7640 -7351 0
2589 8142 -8986 0
-6437 -8339 192 0
-8957 5552 -5904 0
-6454 8029 -2234 0
955 90 9512 0
-5946 9361 -7921 0
8857 -2828 -8269 0
9907 -8082 -4784 0
-6509 -2404 797 0
7932 -302 -7981 0
-6238 -8762 -8327 0
-8203 4008 -8946 0
-9338 9328 6962 0
50 -6732 -928 0
-6884 3595 6587 0
-3743 6810 1791 0
-1246 573 8462 0
-4236 -553 3725 0
-8768 5085 2779 0
6702 5394 -2695 0
-8293 6776 6792 0
-3798 -8530 -9289 0
4319 -5355 -6091 0
-3765 6421 4248 0
-1442 -7989 2293 0
910 -6444 587 0
-1079 7708 -3731 0
5885 2328 4120 0
7023 -5814 -6555 0
865 -9089 1512 0
-9001 770 -18 0
-3373 -9082 -8344 0
8929 -230 9522 0
-763 -2892 7539 0
-3552 -5387 -1297 0
-6568 3140 -272 0
6455 5742 -4075 0
3792 2663 4290 0
9908 3801 -1116 0
-6087 -8779 4239 0
8286 7073 1004 0
5831 -313 -8331 0
9473 -5548 -9645 0
-1256 -9804 -2131 0
928 -603 -5393 0
3871 -1743 -2535 0
7243 2979 -8109 0
1000 -5423 -2669 0
5956 -4901 -9236 0
-5033 9528 -8562 0
-8151 7051 -6874 0
-8401 7085 5598 0
3648 8101 553 0
2024 342 8477 0
1242 2997 1550 0
9767 -2549 8520 0
-64 9803 -9805 0
9966 4237 8650 0
-3052 7168 -5204 0
-4981 -6263 -8536 0
-4547 3947 9169 0
6606 -6951 -3325 0
-8291 7012 -4496 0
2718 -4648 -4294 0
7701 4510 -4107 0
8267 9431 1877 0
-9142 8212 9282 0
-7213 4647 8399 0
1756 8861 -1405 0
1555 -7110 6255 0
2126 -1551 5566 0
-2123 5703 -9065 0
-679 -6630 -9061 0
-4468 -9350 -8666 0
-4540 9432 5368 0
-9669 6381 9029 0
7775 -1218 -9384 0
-7826 -51 991 0
-6874 909 -8404 0
5944 9118 9723 0
-412 -4392 -3858 0
7028 260 -876 0
-8349 -5665 7356 0
2369 824 339 0
-6285 -6348 -6754 0
9092 1626 -5919 0
9253 1480 -6736 0
3468 -9826 -6675 0
8885 9374 8521 0
-8414 2048 -5880 0
-5703 9966 -915 0
7786 7598 708 0
-6210 -7488 -3709 0
7443 -4080 3163 0
4747 -2456 5014 0
5572 -3356 -5175 0
-9421 7956 -4540 0
-255 2473 -4881 0
-5671 -5840 -3343 0
-7088 -4601 5432 0
-6865 -3723 -3396 0
1256 5401 8820 0
-1048 -7291 -4230 0
2428 8142 871 0
4309 6393 6625 0
-428 473 -1062 0
5330 -2086 -9978 0
8778 2115 -9698 0
-267 4785 4791 0
4171 -7358 -7686 0
3152 -656 -3862 0
6924 -1396 1068 0
681 -2548 -965 0
4742 -9621 3159 0
1801 1096 -1328 0
7274 -2347 7491 0
-9577 -9256 -9131 0
1381 1237 -5553 0
-5493 -1055 -5984 0
1041 -8222 3420 0
9364 6142 -3045 0
-2790 -6110 -5846 0
4445 -7713 3148 0
9397 -3871 -3335 0
5365 2064 8551 0
-9 7147 -4855 0
-668 9439 -4281 0
1184 3353 6156 0
-6304 4389 -2054 0
-832 1848 -6259 0
8116 -8380 -666 0
1788 -7189 -9657 0
-9542 7185 -3421 0
96 -8863 3925 0
7705 9782 2944 0
-3750 1086 6120 0
-7052 -6988 7609 0
-6184 6296 4600 0
-9264 -5408 -7502 0
-8816 6989 -593 0
7636 -884 -8924 0
-8814 -3143 -4174 0
-5512 1478 -9906 0
-6726 6341 5926 0
5671 7130 -8398 0
-9139 8010 -3819 0
8934 -4243 8248 0
-8590 -9156 4886 0
9908 -3274 3144 0
-838 -6306 7029 0
-8351 -48 7081 0
-5949 -5531 6176 0
5247 4411 -946 0
-6319 -6599 1704 0
9558 -3768 8556 0
9469 339 5110 0
-4959 6323 7880 0
-7510 -603 8555 0
-4898 -5729 8067 0
-176 1069 305 0
-2817 -6259 2303 0
-4810 -7257 2362 0
1886 4570 -6809 0
6039 5302 3969 0
6991 -2876 8080 0
1099 -534 9546 0
-1280 3950 -2957 0
-8754 -4075 -6500 0
3187 -9833 -9259 0
-5086 -8962 1100 0
-5106 -6955 -3138 0
2825 9787 8673 0
654 -9180 2761 0
-8666 -9373 -4681 0
4919 -8050 7367 0
-8333 -7080 1952 0
-3656 6415 6308 0
-858 9560 9085 0
-3625 6666 -4882 0
7810 7995 7363 0
2199 4802 -2934 0
1739 7717 7796 0
5210 3706 8260 0
-7860 -8861 4305 0
-403 -3192 -8952 0
-4963 7909 -5807 0
1030 8302 3662 0
-1609 -9225 115 0
-8763 368 -7933 0
-2613 -1350 970 0
6985 9460 3669 0
4224 7294 4309 0
8804 -4599 3840 0
6101 -3439 -3498 0
5607 -5895 1950 0
-6430 -8043 -9431 0
-791 -2270 6270 0
3212 -1777 -3293 0
9910 6557 2119 0
-9305 3186 -5426 0
-540 -7022 -6466 0
-5187 9661 9564 0
-4795 -3967 5462 0
4512 -1464 1039 0
-3816 -4673 3763 0
-1032 -5461 -2086 0
-407 -5076 5658 0
3464 3973 -2977 0
-519 -4426 8405 0
-5110 -7209 8150 0
438 -8032 -5721 0
6078 3409 -9987 0
-3501 -9 6717 0
-8332 -1726 217 0
-9926 4475 -7098 0
4491 8685 -9103 0
2773 830 1418 0
2258 7374 -337 0
2172 1323 5578 0
8699 -7009 -4483 0
2292 -2616 -3125 0
4948 -2952 1890 0
4927 -3522 1773 0
6291 1392 5824 0
-7727 -7555 3628 0
-5573 4966 -8904 0
-91 7003 4684 0
4817 -6289 8331 0
7259 -8133 3583 0
-3041 -4021 9727 0
7360 8897 -2765 0
4312 2694 -9542 0
-9399 -9150 5969 0
4225 7206 4789 0
-1384 366 1836 0
-8069 8929 -2005 0
6948 -7688 -265 0
7254 9045 -9140 0
-5444 -1464 -4226 0
4913 4961 -8994 0
5697 434 8399 0
8313 4340 808 0
-2552 2936 2054 0
5063 8 9222 0
-6803 -5586 -5312 0
9776 4573 1227 0
5081 298 1997 0
2629 5192 2797 0
-1627 -5319 -1999 0
363 3745 3058 0
9066 6838 164 0
1569 5089 7282 0
-7412 -7546 -7365 0
5666 -1224 -4872 0
-572 2317 7422 0
-6814 -925 -8321 0
-9973 7834 -8383 0
-4110 -9444 -9103 0
-5157 -4883 9091 0
1835 6100 -3227 0
-9223 6650 -4205 0
3934 -715 1594 0
8822 -5570 -4781 0
-7483 -493 -5575 0
2027 -7411 6853 0
4324 -3019 -5662 0
-556 3239 -3564 0
2166 3546 102 0
1012 2393 2000 0
1836 9838 1277 0
-9486 5486 8793 0
-585 -3334 2250 0
6728 7972 7433 0
-1343 6068 489 0
6646 7166 9762 0
3512 -433 -6862 0
-3842 -3250 6906 0
5679 -9495 916 0
1541 4682 417 0
5275 6996 3893 0
7512 1989 -3782 0
-2820 7411 326 0
-8702 751 609 0
5886 -7886 -1504 0
2032 505 8995 0
339 -4838 -7744 0
-2650 7824 2171 0
9430 4990 -8920 0
9638 813 2248 0
2628 9888 7806 0
8238 7978 3560 0
-1232 1991 1696 0
8251 -1153 -1275 0
-5074 -3777 2930 0
6511 -7360 7732 0
3171 1708 -2195 0
5583 -6157 8740 0
-9643 -4839 2428 0
-4461 2099 -5215 0
4330 7195 8570 0
-9547 8586 -646 0
-2570 -9125 9565 0
4508 -2402 2433 0
-710 -2830 -4887 0
-7293 -311 1091 0
2381 -3538 -182 0
-9240 6474 -2413 0
55 7499 9644 0
-7008 4922 2620 0
7448 3174 1650 0
2821 -2979 -5941 0
-7817 -8624 -4265 0
-1795 -4531 -5132 0
8004 4177 -1138 0
-8727 -1523 -2380 0
-7885 7592 9751 0
7683 8874 -7534 0
5599 -4542 -4034 0
5905 -2567 665 0
-9356 -4664 -3436 0
8423 -3776 -5057 0
2089 -8573 -3744 0
-9463 1576 -9062 0
8819 544 4639 0
-7699 8027 4366 0
5818 -2216 4351 0
-7066 6906 -4214 0
5896 44 -7063 0
-8938 1894 -2959 0
8327 8229 297 0
1739 -5327 7663 0
-1517 -925 6731 0
-7431 3505 -7525 0
-87 -6730 9880 0
-1699 -9262 -8396 0
-3316 8934 825 0
7385 4181 -150 0
-4982 -9915 -9865 0
7088 -839 -3043 0
7195 -7214 -4754 0
5053 9662 -3106 0
3745 -8651 -2610 0
6872 -1661 6749 0
-7218 -6778 406 0
588 -7662 -3334 0
2991 3606 3621 0
-9771 -2082 -6705 0
8727 6203 8682 0
-904 -3926 5875 0
-3385 8965 -4257 0
-5787 4011 -6472 0
-7476 7112 273 0
6746 235 -4771 0
400 822 9557 0
-2590 5623 3187 0
51 -9642 -1855 0
2471 6131 -3509 0
5501 3106 -5074 0
-2025 -4268 -8543 0
681 -4386 1053 0
2144 9163 -1112 0
4490 627 -1127 0
4304 1307 1608 0
-6856 6996 -1941 0
5681 9553 -8318 0
-6427 -1459 -7748 0
-161 -3712 6562 0
4064 -1533 9853 0
-6118 -1145 2362 0
-7806 7766 -8669 0
-9832 852 -5853 0
-8801 -2215 -4319 0
-8378 -1670 5830 0
6560 -3306 -7318 0
-8475 4982 9955 0
7156 -3654 1585 0
-6487 5120 -1496 0
-4141 3418 -6104 0
3876 7647 7067 0
5403 2439 2724 0
4095 -7035 -1865 0
-1082 8588 -4875 0
1117 -2815 8062 0
8240 4127 -6358 0
3162 -7254 -2308 0
2702 3843 -9424 0
1515 -1420 2783 0
-6412 -8289 8741 0
-1917 -2682 2981 0
-9739 5234 -3771 0
971 5503 -2995 0
4019 2809 871 0
5562 -236 419 0
-8005 7934 -4433 0
4120 -6577 539 0
-8413 1494 1800 0
-3941 4955 185 0
2874 -8155 2869 0
-6940 8142 5748 0
-3591 9746 -1672 0
-4658 5884 -2706 0
-6548 8252 4285 0
-8955 -7430 2356 0
-4544 587 9839 0
4556 -401 -2667 0
8011 227 -8867 0
-7652 5359 -425 0
-860 299 -5734 0
2343 3251 6304 0
9811 3184 -7323 0
-7854 400 -2490 0
-8925 4475 5162 0
1581 -3317 2744 0
-6653 -1380 5006 0
1525 -1453 -9364 0
-5094 -1426 8152 0
9144 8113 -3087 0
-1214 -5006 -5422 0
5745 -329 4284 0
7140 3109 7444 0
-9667 5656 8383 0
7345 -837 1802 0
7133 5543 5335 0
5073 2954 6147 0
-8907 -4538 -6386 0
-5707 -4058 4071 0
-7998 -9381 -270 0
-3695 -194 8210 0
-299 6164 6960 0
4833 5173 -8757 0
-237 8473 5093 0
-9079 -4927 5414 0
8035 -2663 4227 0
-861 -5887 6856 0
-866 536 5638 0
-1390 8545 394 0
9166 -7239 4746 0
4969 -6312 -8733 0
-3001 -2996 -4594 0
-109 4743 6895 0
-4833 8017 8936 0
-9169 8269 -3913 0
-4666 -6711 -4121 0
-5820 -1038 -6032 0
2793 -2484 5621 0
4482 5776 5556 0
1167 7208 -209 0
1274 -4212 9165 0
-5437 -9491 -5807 0
3260 -7036 5635 0
-1328 -4142 -8158 0
6952 2000 7386 0
-9077 -9930 6272 0
701 2755 6516 0
-7041 -8780 -4551 0
-2185 -1452 -141 0
4361 -6195 -4760 0
2207 4269 -664 0
9324 6351 7554 0
-5306 -9711 -813 0
-3154 2381 -854 0
-9313 -9985 -6172 0
-7674 -18 69 0
5410 9546 -1219 0
-1642 -7927 5858 0
-9564 1776 -7694 0
8572 -7022 9380 0
1440 -9646 4578 0
-2086 177 -6269 0
6156 9483 2497 0
7002 1927 977 0
-2510 4843 754 0
5580 -4329 8360 0
7521 -352 2260 0
7796 -1846 -1335 0
4283 5343 -1092 0
-5238 2303 -5062 0
5505 1164 -350 0
-3306 -1212 6538 0
8313 -8473 839 0
1877 4695 9229 0
-2090 2618 -5438 0
7730 4326 5098 0
3462 668 -5196 0
7038 8964 9824 0
-7029 1882 -8526 0
7772 -6996 3185 0
5948 4391 6887 0
-6534 -536 7667 0
-4022 1630 -1399 0
-5560 6698 180 0
6783 8124 9487 0
-995 4601 -7349 0
5566 -8426 -730 0
5243 3714 -1055 0
-1886 -9684 9868 0
3471 9091 -8693 0
-7408 2982 -2153 0
1007 8650 -9418 0
7339 3763 7293 0
2395 -3045 3161 0
5517 6976 4001 0
921 657 7761 0
-8155 6653 -9179 0
-1515 -454 -3641 0
-3479 -8496 -2115 0
-8322 -9487 7384 0
-6558 1095 -8143 0
-1644 2619 7796 0
-3758 -1704 6253 0
-8223 1331 -1362 0
-7034 -8997 8829 0
-8820 -4179 -7498 0
9182 1765 -7241 0
-3639 9455 -6073 0
-2003 1144 -5504 0
4294 -6260 5123 0
-9940 2740 9988 0
-1636 -486 -8218 0
2451 -8687 -7571 0
-5426 -7974 4181 0
-1947 1193 4380 0
-414 -124 1799 0
4508 8564 -9397 0
-8222 -3795 -9101 0
8585 1930 -176 0
-7146 -9014 862 0
-6965 4019 2061 0
5587 8271 8071 0
7537 -7451 1510 0
-7923 -1561 1749 0
9219 4664 6674 0
9229 7100 -3623 0
-5759 8594 8126 0
4446 -3440 7398 0
2208 8885 3760 0
24 8221 -7251 0
-8779 7174 -6290 0
4217 2711 -3523 0
7831 7644 677 0
9087 -7668 5114 0
4059 388 -4472 0
5542 8267 -8513 0
-632 199 6994 0
1693 -7212 8907 0
-368 6344 7636 0
349 -8771 -3260 0
4431 -954 4735 0
-2926 -1850 -8343 0
8922 1950 -7081 0
-317 7594 7139 0
6062 1133 2619 0
-9073 -6390 1903 0
-8637 7232 -1094 0
-4682 -757 -6738 0
-5994 -9071 7181 0
8114 -696 4701 0
-8656 -6294 9510 0
-612 -2688 9477 0
6843 4083 8129 0
-1751 -4917 -2043 0
-9888 -175 -4793 0
-6304 -5001 1207 0
-659 6342 3232 0
1032 8101 -5042 0
-9848 -8243 9257 0
-7230 9710 -8022 0
1088 -7132 1424 0
-8373 484 8443 0
9200 -4045 -8331 0
5318 -6080 -8830 0
8913 39 3748 0
-534 6369 -6548 0
8428 3174 -6297 0
-4202 4851 988 0
-3205 -298 -5233 0
-9868 7881 -5497 0
3334 -8125 3663 0
-4544 1729 -8520 0
-8485 -8932 4032 0
-7210 7489 -6440 0
-7437 -416 9838 0
5176 -99 1300 0
-4018 8571 -5786 0
-1313 -4667 9118 0
-909 2336 -7504 0
8882 -9205 -6097 0
7726 -6643 -9650 0
-9483 5954 7968 0
-1230 -4 -9731 0
-3780 -9025 -490 0
-7963 -6903 -3610 0
-1017 -2605 -1480 0
-8167 -3579 4218 0
-1465 -8583 8266 0
-4358 -2605 5020 0
8389 6817 -1017 0
-5996 8254 8940 0
5920 9363 -3197 0
-212 3981 9781 0
-7305 -2955 4831 0
2491 5642 -95 0
3227 -6345 -758 0
-4149 2437 6480 0
-5046 6496 9833 0
1132 -4562 6118 0
-2263 6349 1246 0
-7937 -4476 -2900 0
812 7034 -138 0
-2211 -5379 4437 0
8259 -7987 -9233 0
6405 8151 6756 0
699 4120 -7954 0
1881 -3302 -4606 0
-6754 208 6360 0
-8390 -4637 -1197 0
4906 3747 -5062 0
5263 5556 6416 0
2234 3468 -8440 0
-4318 8569 -2768 0
538 6377 5342 0
-6094 -5843 -6974 0
-1557 1442 7360 0
-5301 2044 5603 0
-9350 -2733 -8681 0
4325 -7816 2569 0
-1991 -8374 -6269 0
-4811 6995 2062 0
7213 -6223 5619 0
-694 -851 -3100 0
-9929 9312 -9900 0
-2952 1981 -6363 0
-6762 8760 9297 0
3259 -9313 179 0
6863 -8449 7074 0
649 2896 -3975 0
9573 -1434 -5856 0
1837 -424 -4706 0
-8642 -281 -9710 0
-9501 -4359 -496 0
-10000 -6226 4363 0
8560 -1905 3564 0
-9794 2904 -7077 0
-6875 -7719 9508 0
-4672 9617 2838 0
2848 -749 8604 0
8839 -667 2357 0
-728 2733 -5097 0
-7501 3517 1645 0
2765 -9899 -7477 0
5419 5821 3731 0
-6612 7718 1130 0
-1899 355 6740 0
-9736 -6086 -9483 0
-2281 4046 8399 0
2738 -2348 -8301 0
-498 2599 -4639 0
-7281 -7643 -3459 0
7213 -7758 188 0
-3727 -1521 7957 0
-6173 -9270 710 0
3262 -4584 -9695 0
7079 947 -9418 0
-1068 1687 -9994 0
-264 -9135 6996 0
4875 969 216 0
5452 -9350 -2110 0
8379 -4535 -5919 0
-5361 -3809 -8989 0
-5844 7781 5534 0
-7414 -2636 -515 0
-4087 -4666 6246 0
-558 7033 -345 0
-2635 812 5719 0
9890 2653 -2262 0
-728 -226 7688 0
2710 -2613 9846 0
2038 4062 4720 0
-6610 781 5001 0
-4615 -88 -4192 0
8921 -3744 7891 0
-4915 3947 2426 0
2053 -1578 -7087 0
-3788 -4044 6631 0
8082 -4012 -7058 0
-8935 -299 -1794 0
9560 1115 8324 0
3634 1818 2058 0
8559 -7228 -1442 0
4302 -1400 5063 0
7545 -7168 -445 0
3953 7322 -5031 0
5184 -1321 3382 0
6217 9828 -7172 0
-4328 -1485 1290 0
-9345 2090 1802 0
-1461 6152 1028 0
5312 -47 -5203 0
-2363 4435 -1041 0
7461 -5453 -9961 0
2267 -8233 -484 0
6054 -4629 -416 0
-1939 -4181 7920 0
-7941 8413 1444 0
6312 89 4956 0
-9474 -7712 -7869 0
-615 -4278 3942 0
9864 -7658 -5868 0
5881 -3403 9107 0
-8819 3096 -1870 0
5713 -5743 3652 0
-9646 4978 2664 0
-5673 -1586 -6763 0
2706 5381 8364 0
-7399 9108 5203 0
5453 8300 -4236 0
-1551 4264 337 0
8733 -5741 -3897 0
-9162 -371 7279 0
6189 -8666 -1534 0
1825 8271 -9927 0
2076 -3658 4070 0
-5481 -3713 -735 0
-9585 -8883 -506 0
-1777 -4536 3312 0
8585 -9728 -1234 0
8674 -8728 9532 0
-413 5085 -7873 0
4520 4860 4999 0
7642 9220 -2617 0
-4854 5542 -5886 0
-4119 9975 2853 0
-8877 1864 398 0
-9484 -1179 6238 0
6643 1713 5860 0
7693 -7494 6685 0
540 -4265 -567 0
-1375 -6577 -2052 0
-7901 -9237 1805 0
-6638 -47 -6072 0
1564 8498 -6799 0
7844 -6036 207 0
6330 6221 -7768 0
-2756 3587 9299 0
6713 3657 6628 0
-7666 569 -8763 0
5173 -5610 2459 0
-9302 -2796 -2629 0
8590 -6750 -2128 0
-7798 5191 -9332 0
2600 5998 -6827 0
-895 -4810 -5887 0
-9341 -1409 4366 0
9228 -1756 -9450 0
-6231 -2068 1808 0
-2219 -2048 2323 0
8968 9011 -3007 0
9030 5303 -8049 0
-9026 3522 -5505 0
2843 -3272 -7403 0
-5758 991 6271 0
137 -1629 -7653 0
8510 3827 5339 0
-9853 -275 -5822 0
2278 2276 1050 0
8309 -6979 2321 0
-9181 5665 6957 0
-5526 6132 872 0
6167 -3879 -2934 0
1217 8015 326 0
6491 7888 3695 0
149 -9140 5127 0
2793 -1501 -252 0
6606 4939 -2721 0
5335 -6862 -6996 0
-2155 -777 3497 0
-2336 832 -3614 0
-3013 -2727 -6534 0
-5007 -2484 -7276 0
-1367 -2256 -535 0
-3300 -3042 -7368 0
-1486 4272 -262 0
9985 7858 3099 0
1594 8788 5021 0
-2081 -9963 3820 0
-7262 2648 -5671 0
-3906 8882 -7889 0
4028 -5464 3981 0
2267 -7270 -7181 0
4336 3458 -2404 0
184 -3372 6637 0
5240 6704 6107 0
-8944 -7269 5291 0
505 7386 -4876 0
-7484 -5667 9667 0
-9278 4068 -3903 0
5286 6853 1003 0
-3942 5975 1598 0
-1740 -4807 -2263 0
-5177 -6724 -4465 0
626 8068 -5338 0
-9898 8989 -9038 0
8929 9840 -5739 0
3585 -1717 9238 0
-1148 599 9860 0
8992 -3989 6137 0
1606 207 -8991 0
-7997 -9134 2131 0
-9580 9793 -6756 0
-1047 -7267 -7147 0
-2062 2788 3432 0
-3958 -1074 -5771 0
8867 7633 187 0
-5690 -2938 -4759 0
-4970 -784 -5240 0
2239 -7183 3304 0
1941 -381 -9186 0
1305 4654 -9306 0
4212 331 -6361 0
-1381 3137 -9167 0
9717 -9115 -7475 0
4456 -1486 4684 0
-2810 1270 4599 0
-2899 6035 4565 0
5413 -9826 966 0
6786 1515 6299 0
-4311 -7334 -1122 0
-6912 -7068 6078 0
-4144 1232 9015 0
4569 119 715 0
-4534 4945 -390 0
1093 8061 2592 0
9277 -4872 6140 0
-342 7684 230 0
-9838 6166 2571 0
8701 3046 4685 0
-27 3300 6743 0
-3502 -5233 -2929 0
6365 414 4894 0
9641 -3564 -3668 0
3566 -969 -7082 0
841 -192 5670 0
-6642 3489 -245 0
-3259 7181 -9456 0
-9465 -7946 5989 0
5247 -2683 5492 0
-8127 -3315 1716 0
-1649 -1957 8849 0
2300 -7945 5205 0
-9601 -7595 5361 0
2065 3030 2677 0
-2465 -2235 6249 0
-5984 2174 4107 0
5701 -2617 -7848 0
-6868 3691 -9221 0
473 9474 -2568 0
-8430 5997 -5724 0
-5304 -7220 3954 0
7573 -802 266 0
818 3313 9601 0
-5980 -4783 -4992 0
9547 -2959 2819 0
-9183 -4267 -5235 0
9383 2579 -6852 0
-3362 -8892 -1655 0
2237 8448 -6228 0
-8292 -312 7204 0
765 -6706 -6375 0
9178 1025 7149 0
-7412 852 2064 0
1415 -7697 -1502 0
-6907 -8052 3584 0
3756 -5333 3007 0
812 -3223 2580 0
-986 3344 7580 0
-157 -5012 7608 0
-1812 6739 -4990 0
6417 -2496 -2826 0
9543 -5798 -9373 0
9853 -4099 8904 0
-4105 -8150 8572 0
-141 -5006 4623 0
6614 -2359 -1391 0
6582 9281 2205 0
-612 725 1578 0
-3003 -2154 -2851 0
410 -7475 355 0
5638 -687 116 0
-5579 8521 3627 0
-8150 895 2859 0
247 -1427 -4584 0
6865 -7855 2448 0
-4828 8269 3590 0
-6345 4052 4816 0
6754 -7019 1823 0
-5269 -8622 2897 0
3401 9185 3400 0
3518 -2456 -5922 0
1485 -8575 -2738 0
-1131 -3922 9187 0
-7361 2457 -3780 0
-2083 3683 391 0
1956 -3750 6276 0
2425 9546 -3722 0
-7168 -2956 6398 0
8521 -1980 3215 0
-6782 -324 2743 0
-5561 -7154 8395 0
7790 281 2161 0
6572 -3588 5940 0
-7818 -8535 5875 0
-1509 -5996 6296 0
-5394 -5578 -2091 0
-4495 -2738 -2292 0
7993 7452 1934 0
-976 5544 9892 0
-4199 47 8050 0
-4312 -8612 -2733 0
-9688 9710 -210 0
8965 -2910 19 0
6495 -3600 -8718 0
9938 2124 -9426 0
2660 9294 -2379 0
7039 -8153 5657 0
9320 -7860 -2531 0
8892 -4616 8122 0
5533 -699 111 0
-6062 814 7737 0
5569 5377 -8728 0
-4723 6404 -9102 0
-9532 7976 6477 0
8254 -1332 7933 0
-7929 -6533 -6262 0
4509 -5832 -9921 0
1054 7774 -7541 0
1970 7479 -2843 0
-590 -9259 -4333 0
794 9345 -221 0
-5312 4434 9038 0
1871 619 6330 0
8711 -4923 7139 0
2339 8791 -8679 0
4454 -1350 837 0
-1972 8616 -5673 0
5763 -9400 3913 0
-2620 2105 -5445 0
8899 5810 -2377 0
9400 -5628 8795 0
-3059 -6109 7776 0
-5926 3627 -5786 0
-888 7349 4830 0
-589 -688 110 0
-4657 3750 -5135 0
3603 -7326 5835 0
1914 -9610 5115 0
-2006 -2633 -1630 0
9798 4825 4069 0
-6486 5514 3813 0
8078 5832 2844 0
4629 -2266 5137 0
-4203 9995 -6572 0
6857 -478 5259 0
-1819 9901 9631 0
8384 8480 5475 0
-3286 7174 337 0
-4290 2978 2349 0
8095 4103 7499 0
827 -6091 -1492 0
-9024 -5473 -156 0
1858 1789 -3558 0
-8711 5678 3352 0
2308 7626 -209 0
-798 -972 1803 0
1218 3059 165 0
9690 2154 -7252 0
6096 -3200 1605 0
-6424 6719 -87 0
-7784 -8109 1769 0
-2217 3241 -995 0
-5425 -6510 6530 0
-1233 -5387 6021 0
2127 -1352 -268 0
-8477 3514 -1427 0
6988 3628 6765 0
-3518 -9952 1869 0
1114 -7168 -8249 0
587 3038 -2538 0
5821 5978 -7339 0
1784 5139 4757 0
-5788 2048 -9682 0
-1581 -3567 -9815 0
-1338 -8203 6875 0
-6116 1034 5064 0
4656 4921 -6410 0
-2637 4141 6133 0
6712 -7690 -749 0
-216 7718 1538 0
-8862 -4066 8390 0
6761 7975 2141 0
5357 -2945 -2066 0
5963 1573 -6991 0
-7434 3676 -3304 0
5588 2633 -4975 0
3435 8696 -2334 0
-6072 -7998 5867 0
-8482 6872 7524 0
8180 9541 -4388 0
5679 -2241 5576 0
4177 1029 5187 0
-3443 3365 -8514 0
-3634 -9937 8603 0
6050 -7087 -1226 0
-511 8052 -4074 0
-7630 9086 6170 0
-745 4066 -6861 0
2183 8693 8244 0
-3124 -6955 7321 0
7987 -7425 5538 0
1805 5431 -6724 0
8921 -9159 5885 0
355 -5121 849 0
1219 5225 -1505 0
-2349 -1885 -3605 0
-182 -9180 -2635 0
3987 -3856 -2768 0
4905 5479 -6822 0
660 -1197 8372 0
3438 5331 7949 0
-6428 3116 4821 0
979 -4226 -7886 0
6249 6516 9455 0
534 -922 3481 0
-6172 8959 7243 0
5756 2655 3440 0
3883 -4601 -7510 0
2406 5212 7183 0
-5758 -9276 -9812 0
-2339 2276 6675 0
-9830 -8212 -3826 0
-429 4303 2587 0
-252 -5753 -5177 0
-9198 5025 -9744 0
8718 -8529 1414 0
4870 -4237 9272 0
-7223 -3746 -3744 0
5855 -2896 -4341 0
7235 -9161 6658 0
8926 -7256 7212 0
7777 -2897 -1583 0
-1447 -7352 -3033 0
2492 4480 8459 0
328 8209 -5093 0
-9097 4211 -1825 0
-8298 7638 -4698 0
-2914 928 1106 0
8800 -9866 5833 0
6983 4670 6880 0
7586 9716 -2819 0
-4121 6286 9906 0
-3056 8070 -2903 0
-5234 -4919 -9624 0
4445 -9758 -8854 0
-5094 2911 -2236 0
7171 8664 1846 0
-2632 1689 814 0
-3628 -6217 -3267 0
332 -2895 -9193 0
5365 -1728 3518 0
-4089 2928 9691 0
-9436 -1104 -4267 0
-2404 5912 -6243 0
-7327 5890 -652 0
6809 -2562 2348 0
-9239 -8568 -1042 0
-2576 -2351 -1444 0
-704 -9835 892 0
-4090 -5017 -9415 0
-8002 803 1502 0
-8532 1544 -9753 0
-3817 7912 -9943 0
-5605 1105 -1269 0
-8554 5652 -9311 0
-8564 -4258 8416 0
-128 5650 7827 0
-3292 -2458 -1252 0
8233 -9438 8517 0
3455 6481 -2475 0
4242 -4501 -8849 0
2470 3957 -8680 0
4518 -9361 1978 0
-1602 1331 -2237 0
2705 -306 1399 0
941 197 -1249 0
-7739 67 9734 0
5707 2836 -7169 0
5479 7023 8324 0
-5288 -7492 -1988 0
-307 -6927 -9817 0
3029 3881 -6753 0
9801 912 3266 0
-1235 6458 -7173 0
-9658 -4597 7011 0
7673 9258 231 0
-3928 4801 4584 0
-5806 4732 1435 0
4607 6314 -800 0
-1028 3760 927 0
8352 2539 2238 0
-5399 8524 4630 0
-1479 -3194 -3996 0
-6307 2395 40 0
-386 720 -4822 0
-3850 3685 522 0
-5850 -268 -3578 0
-6240 -9773 3786 0
-8880 1569 -4645 0
-1571 -2578 -7763 0
2207 7236 -6790 0
-8886 -3567 6832 0
9534 7319 6772 0
547 -9960 9664 0
9963 762 -7495 0
7207 3194 5177 0
7632 -4926 -1130 0
384 -3236 8686 0
-8800 -9880 -8454 0
8532 6178 2556 0
2832 -4697 -604 0
7927 -6382 -9310 0
-2210 -2846 6903 0
-1579 4744 1919 0
8374 7269 6602 0
-1312 -8257 -6911 0
5810 5807 1064 0
8815 -3657 2942 0
6164 2112 -7782 0
8716 7103 -2837 0
-1024 6856 5266 0
3452 7501 -2249 0
7210 3725 3601 0
-1576 -2940 1322 0
5538 8279 6053 0
-6070 76 -9911 0
4755 7944 6721 0
-1833 -7571 6023 0
9565 -9580 592 0
2271 5406 5543 0
-2628 8638 -5336 0
3462 -8378 -8500 0
-4944 5722 4501 0
-3091 8903 5042 0
-886 -9759 -8049 0
6621 3483 -5658 0
1 -2467 -2239 0
3056 5817 2973 0
5666 4463 -5330 0
-435 -3384 9631 0
-8456 6796 6662 0
-3137 7882 6658 0
8838 -7870 4591 0
9087 1040 -5925 0
-743 1724 -6565 0
1572 -7529 3702 0
-5405 3813 -1216 0
-1811 6623 -877 0
6470 -6876 -478 0
-4456 -4341 -2489 0
2006 -8966 1680 0
-7595 2100 8416 0
-9409 6453 -756 0
8659 -4485 2400 0
6828 -305 -3283 0
-3396 5516 6437 0
9765 6867 -9395 0
-8636 3516 2341 0
-2755 -4378 7536 0
-5440 7848 8035 0
6433 6048 -2301 0
3678 4363 5552 0
6425 -2165 -9765 0
-1865 -8967 -4038 0
-4127 2771 6586 0
-592 1087 -250 0
8318 -5592 3162 0
2276 -2035 665 0
9932 -5159 -4160 0
1016 2579 -4975 0
-9898 767 -6317 0
-7775 -3990 9236 0
5565 7975 2147 0
-1526 536 8729 0
-7776 4441 3544 0
-878 -155 4699 0
748 -8123 5115 0
1577 4510 -2954 0
6603 -9171 -3641 0
2974 -4804 -6375 0
-1098 -8691 5975 0
-8633 -6662 9107 0
8132 7209 2710 0
-9272 2712 -8138 0
-276 2934 8612 0
-7815 -7494 -6522 0
-5310 7937 -2313 0
195 8207 -8471 0
9594 -7737 2460 0
9485 1285 7688 0
7682 -4080 3375 0
6793 8929 -1693 0
-6781 -2827 -3626 0
9201 -8441 6810 0
4736 -2811 57 0
7564 -4768 8322 0
5477 -5968 7757 0
-2881 -597 -356 0
-8862 -4297 -1441 0
8551 -4789 2392 0
6392 1737 5954 0
-3096 -9126 -4933 0
1792 3543 -7664 0
5942 -7838 3503 0
-7764 8675 9843 0
-7301 2247 7620 0
-9741 1599 8219 0
-9788 2918 -5399 0
-1940 -7607 2729 0
4006 -4628 7364 0
-8940 -3395 -7840 0
-1275 3535 1682 0
9315 3575 -6423 0
-369 7788 1824 0
-4381 -6191 -6771 0
-5378 -6477 8891 0
1214 8800 -745 0
-1347 -5992 9705 0
7034 4017 9776 0
-6847 -862 -3600 0
5998 8629 -6784 0
-6040 -940 -2188 0
1453 -5627 3137 0
1266 -1684 9100 0
-9039 2513 -9845 0
431 -6642 -39 0
5772 -2467 -1603 0
-2859 -9919 8494 0
6169 6048 -5950 0
9299 1376 -9879 0
6555 5644 -9653 0
-3660 -9620 -2643 0
9021 1889 -3793 0
467 -4076 -758 0
-5546 3032 7230 0
-512 -6748 -4929 0
-6060 -2303 1140 0
-2040 -2843 6079 0
-1657 5280 -2418 0
-1056 1835 3622 0
-5450 364 9581 0
4356 6624 903 0
4417 -6951 3199 0
-5797 -2894 -1889 0
-4960 1079 -6940 0
-4751 102 -6104 0
-8677 4787 -8961 0
6913 -4477 -5515 0
-4128 -7174 -5790 0
4866 -7421 5689 0
-1895 3372 8472 0
7103 2113 -6362 0
4264 -6163 901 0
1266 -9859 -3830 0
-2462 453 -9894 0
-8074 5409 -6325 0
3144 -6374 -5543 0
-6580 -3362 -3590 0
5831 3069 -1150 0
6217 8272 2698 0
-819 -8211 -7117 0
9442 1046 -6727 0
-3930 -7881 -317 0
-5500 -3711 -5074 0
-3297 2564 -5207 0
4577 -6920 -2862 0
-9925 6010 3921 0
7816 -3441 -8093 0
-3830 6237 -5525 0
6606 9533 -7329 0
-4323 176 -340 0
-4374 -4940 2605 0
8222 -2054 -2139 0
-4360 5873 -5085 0
-9543 -461 6429 0
8081 -4227 -2605 0
-6144 8835 -3185 0
-7574 -645 3598 0
-6240 -4467 7597 0
926 -5012 7610 0
7936 -4942 2390 0
-685 2526 -1811 0
-2032 -5561 -2646 0
-9673 -96 7770 0
3960 -7261 -859 0
-3867 -5243 2473 0
6196 -6440 -5265 0
-5433 -9474 1436 0
-6104 7765 8646 0
6189 5869 -8021 0
-5451 4452 -5463 0
-7573 -9807 -331 0
1101 800 -4877 0
3782 -7839 -100 0
7360 -7785 -7019 0
1441 -7791 -6205 0
-9744 -9140 -1283 0
-9024 199 8385 0
6748 -4946 4707 0
-7926 8631 105 0
-2450 -7785 9870 0
-423 3675 -5663 0
2071 1663 937 0
903 9099 -85 0
8454 -2753 8314 0
5292 2011 5899 0
9455 -2893 7559 0
7542 4406 -3408 0
-4859 -1420 3222 0
1431 -1680 -6022 0
4111 9946 3412 0
-7863 -7277 594 0
-2898 6371 -9099 0
7458 -4836 6583 0
-9621 8770 -7061 0
-5575 -4529 -7342 0
-9197 4584 -1913 0
3781 422 -80 0
7163 -3616 5911 0
-8676 8998 663 0
-6218 7208 5050 0
-8768 2583 4693 0
-2252 -7789 -5344 0
-2173 9878 6192 0
2841 -6712 -3176 0
4346 3872 -5455 0
-4992 8931 8464 0
-2412 9823 9031 0
-7884 -1623 -548 0
-4337 -6850 -972 0
6771 3834 6875 0
4450 -8468 -2557 0
876 -6997 -9632 0
9294 -8397 -7565 0
-5479 -7268 8912 0
-5927 -3871 -5591 0
6678 -459 2941 0
5945 2750 4755 0
-176 7234 2263 0
751 208 6446 0
-2673 1644 -4028 0
9568 8436 -7965 0
9691 5531 6637 0
-6433 -8333 2111 0
3472 1720 -1505 0
4641 -3259 -7809 0
-3618 -4538 -6545 0
2313 -9182 7239 0
-5750 -2301 -4255 0
-610 2918 -2574 0
3358 7710 5944 0
-7083 9488 -5208 0
-3566 3896 7447 0
7893 2878 9222 0
8097 -7470 -9114 0
-6598 4403 2352 0
1751 9503 2958 0
-8952 -8782 8065 0
-6411 -9923 -8260 0
6009 3891 -5315 0
-7702 8607 1301 0
-976 -4619 9904 0
-920 -6725 4695 0
7111 4180 4078 0
4634 7577 -3944 0
-689 5394 7113 0
5093 6676 -4142 0
-6401 4996 2876 0
-2559 -8160 7280 0
5692 7858 -8730 0
1009 -5343 7964 0
2670 -3086 9074 0
5737 7080 5329 0
395 7277 -3490 0
-6207 7954 6593 0
-964 -7388 -7113 0
-4661 3249 1036 0
-6995 -9004 -1028 0
-6689 8226 -7477 0
-6051 -8318 7855 0
1247 1378 4190 0
9063 3215 4275 0
7779 7227 4834 0
6873 -5898 -3013 0
-4338 2429 -7097 0
-3491 -2362 6739 0
-8354 5398 9025 0
5633 -5448 -3201 0
-3783 5297 -5997 0
2737 6574 -4100 0
1005 -3224 -8221 0
6180 1662 -9550 0
4350 -3932 6310 0
3464 -4666 4891 0
2165 -3620 2891 0
-1278 -1527 272 0
-4065 -1843 -8677 0
-5572 -9043 -9863 0
614 -9040 -9203 0
4541 6705 8539 0
-6311 3753 -531 0
-8273 6876 3779 0
-1024 -5629 611 0
-719 6127 -1282 0
3716 -9409 -9039 0
-6976 6490 -6096 0
-8623 538 1400 0
-6114 1958 2516 0
4617 -5891 8429 0
3856 5694 9164 0
-8280 1502 521 0
-2396 4789 -4659 0
9363 7718 1336 0
-865 -1930 1303 0
-316 6601 -4643 0
-2359 9025 -4728 0
4380 5300 -2214 0
-415 -146 3290 0
1110 5756 4347 0
-3718 -1865 -8588 0
7813 2766 3802 0
8899 -8922 4936 0
-571 8786 2428 0
-3128 -2947 9829 0
1680 7633 3509 0
-1420 -7410 -6978 0
2115 5149 5441 0
9079 -3613 -9520 0
-8371 -2549 -8858 0
4974 7791 -375 0
5253 -9019 -9533 0
-6474 -4166 7236 0
-3246 -3899 1952 0
5549 -2896 8134 0
-3482 -4332 2417 0
2497 -8189 -2852 0
-8791 -4279 6544 0
-7368 -6086 -8423 0
1206 4177 8266 0
-2165 1770 4059 0
426 4896 8477 0
9794 9804 8208 0
8558 1635 5252 0
9057 1711 5066 0
8133 9389 -9283 0
-6188 5813 2408 0
-4540 -8041 7382 0
1361 -7890 -3831 0
-1208 -8350 -5596 0
-7188 5787 -9016 0
99 -5607 2544 0
-7335 -8713 -8058 0
3536 -4807 8935 0
-8570 -737 4864 0
7819 743 -6380 0
3057 5299 2047 0
2301 -1624 -6989 0
-1518 -5541 -9627 0
5303 4959 -5333 0
-3231 6026 8788 0
-9398 2386 6363 0
8575 9842 -5582 0
2093 9303 -8418 0
2400 1320 -8996 0
990 4539 -1336 0
6185 -118 -3478 0
5628 7528 1943 0
-2055 8073 16 0
-2316 -6588 -7067 0
2427 109 6106 0
-8850 -2667 -5195 0
8859 2777 6411 0
6695 -1712 -5020 0
9964 7128 -6223 0
-8415 9704 -5613 0
9625 -9819 560 0
-3179 2523 -5307 0
9870 -2355 608 0
-4393 -12 6309 0
-519 -1780 9120 0
8962 -4200 7406 0
5868 3365 -9563 0
-9263 2840 1966 0
7040 -7087 8449 0
3246 -8594 -2551 0
5466 6339 -2606 0
-645 -3177 -2221 0
1366 -5997 5110 0
-9158 5166 -5882 0
1677 2198 -7252 0
3890 691 6628 0
1251 8110 -7252 0
-1484 -3689 5741 0
420 4862 -5757 0
5344 5520 -6524 0
-120 -9833 -7566 0
5595 -2130 -4225 0
9772 4205 -3261 0
-2439 -1866 -537 0
4101 -421 -5609 0
4404 2852 8374 0
1601 -1763 6089 0
8429 5380 -8319 0
-8244 2569 -4913 0
-6012 7444 -8570 0
-9137 -520 4449 0
8295 -1048 -3022 0
-1216 4560 8812 0
5496 9001 -1841 0
8986 2615 2937 0
-6521 2501 -4801 0
9807 8540 64 0
-6423 1712 -6452 0
-9814 -2642 -508 0
-1245 1708 -4264 0
2919 6746 5793 0
3364 -2386 -6155 0
-9405 5593 81 0
-6717 -9974 4410 0
-6297 8234 -552 0
-4046 1328 -4976 0
-511 -4316 7696 0
2567 7657 -1051 0
-8840 7415 4947 0
-8691 9798 8451 0
9908 -6601 3220 0
2599 -1618 2205 0
9483 1588 -4806 0
9322 -3681 78 0
1224 -4193 1989 0
4968 -5136 -9957 0
-5397 -4177 -7876 0
3175 -4612 -9640 0
3307 6755 5158 0
635 9466 -5381 0
-5691 -1914 -5190 0
-6960 -2723 -5409 0
-3755 5233 5208 0
-8410 9349 7366 0
2746 -3719 -8323 0
-3736 -7239 9390 0
-4025 -545 7517 0
9391 8905 5624 0
8937 1386 -9493 0
-5821 -3202 -4073 0
1347 -7105 7769 0
-8533 4767 -8849 0
-8859 -5358 5722 0
2211 -2167 -4765 0
4114 7569 3532 0
-8490 -7024 7315 0
-6946 -3226 9255 0
7770 -1839 -9356 0
7489 -496 978 0
-8850 -3497 7098 0
-91 -4384 -7392 0
1786 7818 4282 0
7836 -7056 8186 0
3633 5381 -9127 0
6594 -3543 7173 0
3561 3101 -3682 0
-5015 -3543 318 0
2231 2361 1285 0
-631 -4345 -484 0
7656 8837 5019 0
-127 7328 4621 0
3357 7968 5308 0
9428 -3868 -3409 0
4591 8512 -4981 0
2928 3071 -5292 0
-6431 7683 9990 0
-8231 3543 457 0
5345 -6013 571 0
-5847 -5330 -5194 0
-4745 -4577 -5218 0
-127 -9712 1891 0
3764 -7821 9952 0
6091 -5768 6797 0
-7487 4022 8522 0
-7590 6554 -8004 0
4743 -2064 5677 0
-7299 6223 1442 0
2526 9812 8360 0
-3825 614 -3648 0
-6605 722 -2735 0
1385 -9587 -2058 0
34 189 -363 0
8174 3242 -9768 0
-5236 -6789 -9570 0
7874 900 -8783 0
839 5076 9632 0
-1990 1269 5298 0
7351 -364 7005 0
6203 5988 -1315 0
-6947 -7017 3433 0
6251 -1946 3511 0
7624 9240 -124 0
9072 -2694 -1692 0
-3711 -6900 9809 0
-8013 185 -3381 0
-2634 9807 1665 0
-9985 8448 -7754 0
-835 -1491 -8249 0
-5797 8525 9146 0
6167 1047 -7199 0
-8997 -539 -7261 0
-501 2673 4485 0
-3267 4625 6024 0
-343 -4351 -2509 0
-1697 -2098 8948 0
-9851 7349 3649 0
3636 -6062 2026 0
2681 1624 -7054 0
-8131 -2515 7475 0
2341 5556 -7065 0
-2786 9751 2977 0
-8707 -2824 6255 0
-48 -3115 7066 0
-4545 4542 -5320 0
1042 -4633 -2760 0
9752 -5504 1664 0
4897 -254 9452 0
-4644 -229 1508 0
-5787 -3904 5022 0
-5097 5348 71 0
-8644 -2007 3060 0
6284 995 2215 0
-4500 2380 7822 0
-7174 -9307 -3515 0
-4405 6316 -1295 0
2095 -8620 -3202 0
5694 8816 142 0
3433 -2086 -3928 0
-8761 -6427 -7515 0
-8899 7120 2822 0
-7591 -5750 1408 0
9820 8956 7144 0
-9055 386 5904 0
5318 -559 8550 0
3876 4074 768 0
-1933 -2106 -1326 0
7544 3074 -3057 0
-4449 2245 4344 0
1048 5489 4556 0
9383 9549 4531 0
-7541 6249 -3871 0
6108 625 8948 0
8230 9511 -7875 0
1599 -8791 5868 0
-1961 -5298 -2307 0
3474 4718 3425 0
-8664 4625 -5166 0
4613 -5873 -856 0
601 -6008 1211 0
-8313 2981 -8252 0
4537 2279 5275 0
-7112 3244 4291 0
8407 2157 -7657 0
7060 -4389 5659 0
4884 9876 8068 0
2895 6861 8573 0
2741 209 -2432 0
9173 -5848 8498 0
8670 -6621 2105 0
-3103 3155 -1748 0
-1510 -7465 -1734 0
330 -449 -6000 0
-6946 7358 3147 0
3556 -9825 -4860 0
6733 -2420 -2717 0
-8544 6956 3733 0
715 -1348 6571 0
-3508 8563 -479 0
8727 -4291 7941 0
3141 -7471 -3265 0
2635 3422 8816 0
2571 2688 9223 0
-5837 -5521 2771 0
8125 6025 351 0
-6033 -1255 9226 0
7479 -727 -9312 0
5760 6099 -2867 0
-384 -1091 6289 0
4798 -4035 7581 0
-7841 2523 8808 0
-7037 -8573 718 0
-3769 -5239 -5266 0
3139 -8418 -2738 0
-8666 -1081 -5782 0
-6211 5258 6758 0
-5333 2534 -5493 0
-9422 -3432 -4828 0
1627 -2594 94 0
9862 -1338 -7200 0
2778 -3669 -2705 0
-6459 -3382 -1952 0
-3008 1592 9049 0
-9723 2731 -9366 0
-8961 8724 -4668 0
9504 -3125 -2129 0
-9397 -4445 1262 0
9056 1571 -3345 0
1731 5484 -3956 0
-9250 -5816 3315 0
343 1455 6724 0
1410 -7864 7734 0
-2584 -4412 -9231 0
6411 -3040 -7082 0
7220 8684 535 0
-8007 1590 7560 0
-2950 -2777 6152 0
-2460 -6971 -8919 0
8564 8693 9565 0
-2709 2708 8410 0
3027 -940 7397 0
8030 -8996 7202 0
2093 1365 5411 0
-9250 8640 -4997 0
-5463 -1546 -8752 0
-6851 -7968 6058 0
-9492 7783 -1684 0
-1211 -9489 -1207 0
3678 8593 -8038 0
1676 1612 -698 0
-9976 -6560 -1995 0
-6667 -6824 4879 0
9335 7680 -5763 0
4178 7243 1727 0
5640 -2569 2603 0
9161 -4090 8514 0
4457 -3800 -2260 0
-8948 5401 -3464 0
3988 -527 5976 0
-3415 -5928 -5094 0
-8698 -7902 -3633 0
-4103 -7808 -3005 0
6548 -3525 -3730 0
-4996 -9289 -2642 0
-6532 3184 -6280 0
-7110 -5844 -1811 0
-2310 -4636 3010 0
5967 2554 1936 0
9977 -7722 2603 0
6123 6273 -3073 0
-9164 -9864 3113 0
-5405 -2499 -2365 0
2196 -8757 -8535 0
2753 3131 -2547 0
-7861 1548 -75 0
344 -7577 -8470 0
-1657 6422 -2824 0
-6280 -3473 7759 0
-1848 8635 7476 0
-694 3825 1241 0
7084 -2223 -2993 0
-4209 4816 1109 0
587 -619 5247 0
-8788 3566 5155 0
-1106 -8648 -5319 0
-177 -4382 8928 0
-8774 -327 1319 0
-8806 20 5985 0
3138 8752 206 0
2803 -3137 -1055 0
-7262 10 476 0
-1986 4566 -3139 0
-2774 -2168 2543 0
131 -1412 1817 0
8129 -7949 -7066 0
-7065 9308 -5333 0
-781 1272 -900 0
-9223 3528 -666 0
8018 9194 4511 0
5337 4439 2284 0
891 -7637 9168 0
1590 -2138 293 0
-6532 -4214 -9023 0
-8544 -2880 9891 0
931 4680 -3992 0
-9958 3883 -1274 0
739 -1624 -5232 0
-7643 -5329 3176 0
2177 5706 1624 0
-7183 4088 8607 0
-3845 6589 7744 0
-1692 -3668 -4108 0
1007 -7381 -2313 0
-9623 1078 66 0
-9125 -2051 7818 0
969 -1298 -9915 0
5486 -8183 2466 0
3075 513 5202 0
-8212 -7826 8653 0
-3161 -9335 -1777 0
-1266 9970 5672 0
-1162 -2173 4917 0
-1505 5114 4108 0
-4232 -4165 -1831 0
9189 -802 -2127 0
4642 2262 -6896 0
-9333 -1210 3442 0
-8249 1364 654 0
-3107 6554 -6700 0
-6869 -532 1033 0
4536 -6372 -3556 0
-7385 -4530 1065 0
3372 -623 -5808 0
-3563 7884 4501 0
528 1709 7878 0
1043 5131 5724 0
-8173 4734 -2191 0
-5773 620 5251 0
6761 -8511 -6606 0
-9602 -5230 -3116 0
-9409 1450 -4038 0
-4814 -4606 3457 0
-1418 -6738 9338 0
7476 -6020 -2118 0
7992 7896 4772 0
3078 797 -5181 0
7157 -59 2698 0
7932 8580 9806 0
-9606 -796 -1088 0
-4432 -9794 4433 0
7051 5472 -8657 0
-8987 1299 -6418 0
-7866 7470 2274 0
-7411 -8174 2589 0
758 6303 -5165 0
9123 -5750 -7413 0
-8351 -6251 714 0
6106 7218 7749 0
2447 -9032 -8296 0
-4781 -7646 3757 0
4483 -4017 9074 0
9675 7402 -6349 0
5986 5405 -9107 0
-3905 -683 -3315 0
-4846 -4892 9166 0
-7040 6930 8713 0
5341 -2997 -6972 0
1691 -3750 1877 0
-4758 2119 1547 0
4228 6468 9664 0
-8448 1471 -9090 0
1839 -492 -2450 0
-4002 -7573 5707 0
311 -1915 -529 0
9895 7000 -8262 0
1998 -8404 -1866 0
-8328 3111 8633 0
9486 8743 9409 0
9197 263 -2725 0
5791 6338 9126 0
-8780 4415 9484 0
-1394 -316 -292 0
-8063 5436 -1587 0
8663 -5558 -6887 0
-7301 3000 1776 0
4037 -5044 5811 0
-8228 -6385 -2814 0
3440 -6813 -5533 0
-9173 4985 -5573 0
2947 -4838 -9987 0
-3041 6244 1816 0
4805 -7743 4191 0
-1066 -4726 6443 0
-9594 6353 -865 0
-8143 -5093 -7574 0
1574 3444 -7826 0
-7515 2688 -9361 0
7486 2945 -2189 0
8981 8205 6876 0
9481 -3073 -6694 0
2641 3979 608 0
-9451 3160 -9156 0
-346 3801 1955 0
855 -5181 2168 0
-5094 -8043 -3605 0
-8634 -3256 8825 0
797 -8614 9093 0
7277 -434 -9488 0
467 4612 -8104 0
3619 -3574 -1409 0
4075 1235 -5269 0
-289 5926 -7432 0
3749 2457 3998 0
8287 -505 -6875 0
-1067 -4325 -2589 0
6819 -3867 2993 0
-2648 -6779 -8498 0
312 8531 -9553 0
-758 -2653 8183 0
2470 -5183 -9734 0
-4859 7792 4904 0
-94 5178 -9694 0
-9277 4139 -2075 0
2567 8378 -3092 0
-1880 -5636 -3147 0
-6828 9230 -7472 0
4829 5799 9942 0
-3818 5394 -2999 0
-5422 2503 5735 0
-7598 -9313 7332 0
9202 -2763 -7727 0
651 -814 -2458 0
859 4665 -9452 0
117 -5798 -6909 0
7526 3358 -6589 0
-3414 6822 -2110 0
8763 -2360 -2230 0
-7573 -8433 -985 0
9750 -2185 -954 0
2152 7483 8764 0
3102 2634 -8193 0
-58 1028 2492 0
1026 1946 -6216 0
-410 -7098 1632 0
-4051 -4714 5426 0
2081 9920 -574 0
4091 -4493 1187 0
3421 6640 707 0
-7923 5433 433 0
8840 9987 6541 0
-4879 1488 3105 0
-4611 5470 -8783 0
-5624 2270 2833 0
9818 -2419 -1660 0
-4095 -1809 -1494 0
1626 1737 4156 0
-6754 628 -3981 0
-2446 1537 -9481 0
6569 -287 -3475 0
-5549 898 -3232 0
-3347 135 5982 0
662 -9005 5442 0
2378 6010 2619 0
9380 8651 7085 0
1141 -9710 -9619 0
8906 2029 1984 0
-8677 2071 -333 0
-341 -7597 -9964 0
-9522 -661 2431 0
-790 4916 -5606 0
-1534 5079 -8582 0
-5151 -3687 81 0
2600 -648 -202 0
-400 -1835 -9117 0
2556 -9867 -8267 0
2395 122 -1962 0
7826 -1147 3295 0
-306 8855 8746 0
-3871 9743 2292 0
-6885 9728 2320 0
7696 -4671 5007 0
-2034 -3395 6159 0
-7214 -1780 -9443 0
2936 -4922 7475 0
-5416 4775 -8278 0
-6149 5438 6067 0
6749 1840 7984 0
-9070 -5633 2567 0
9806 1903 529 0
-6231 -1607 6152 0
8696 3773 3223 0
7849 -1498 7562 0
598 1473 -7111 0
-2948 8438 -6617 0
5182 -2516 1452 0
-8721 -1330 -5437 0
4932 1797 1106 0
5197 6842 3757 0
5071 7743 243 0
-7073 -541 -5547 0
-5707 7564 -1989 0
272 -9867 3025 0
-9233 1818 6784 0
-7171 3618 -2292 0
-1160 1942 3439 0
4736 856 -7775 0
-1642 576 -3107 0
-6440 4063 -4238 0
-9084 8160 9180 0
3101 -496 -7547 0
-5739 7911 5190 0
-4331 4235 6356 0
551 7968 -8671 0
6769 -3917 6957 0
-3245 9561 -4010 0
-2237 6032 -9109 0
8571 -9221 -2019 0
8681 -6917 -5772 0
5646 -2255 -4307 0
-3637 -4868 -8116 0
6337 5929 -1748 0
-2000 9070 9350 0
-3888 8658 8968 0
3330 -5398 -1230 0
71 9733 3001 0
-1501 7333 -6443 0
-901 5976 -7882 0
3575 -2429 -2047 0
5336 8737 7986 0
1324 -5158 -2205 0
-3140 8114 -5160 0
-7441 -7724 2130 0
-3968 689 -473 0
1695 8594 8194 0
8040 445 2413 0
344 -4239 -9992 0
-1596 5749 -5304 0
1541 -4170 -7690 0
6243 -4614 -7703 0
-6413 -4650 -4876 0
4878 -1947 2 0
-3831 8095 5833 0
3305 -7829 -2650 0
-4063 4183 -9997 0
299 4701 -4396 0
5258 3505 9879 0
1457 -6610 9007 0
-2427 -5830 -6387 0
-9125 6875 -8279 0
8233 1134 -9492 0
3953 -4779 1156 0
-7137 3105 -8710 0
7058 -2265 -2779 0
1416 -42 -1653 0
-4763 1411 6186 0
-9109 -6441 5385 0
6642 -3385 -9304 0
-2373 2906 8125 0
8947 1413 -2872 0
721 4106 4807 0
7338 -717 -8641 0
4636 7070 -3185 0
9282 2734 9382 0
6162 -7835 -2820 0
-6299 5091 -533 0
1545 6273 8139 0
-6518 -8110 1074 0
6007 -4867 5431 0
-1769 -5409 3735 0
9932 4227 7226 0
-3559 -5713 4887 0
-963 2492 4764 0
3830 -6076 2905 0
9386 5154 -890 0
8738 7496 2223 0
3962 -774 1148 0
8319 -9185 -7320 0
-9888 -3540 -5470 0
9772 1014 -4564 0
-7047 -7508 -5002 0
3730 143 -3188 0
-7449 6244 2385 0
3031 9480 7197 0
-4226 8805 -7829 0
-5823 -9869 6823 0
-4534 4377 1530 0
-6215 -1878 2393 0
-1067 -5605 2298 0
3410 -6220 -7718 0
-3675 5149 -5271 0
1544 7699 -8975 0
-6879 5607 9828 0
-1127 1248 -3298 0
-8299 9438 -8292 0
-6098 -4561 -5591 0
-548 -242 -2000 0
8595 9502 7029 0
3270 -7052 -7640 0
9790 9434 -3722 0
-9460 -832 -4698 0
23 1508 8565 0
579 -5105 -6193 0
-1490 3404 -8977 0
2227 -3740 -7778 0
3463 1161 -6685 0
1223 5857 8111 0
-8216 -546 -7556 0
-8454 -6610 -7054 0
7979 3077 238 0
-115 -2579 976 0
5628 1729 -8882 0
-3717 7760 6097 0
-8372 3570 -4429 0
518 6834 3333 0
8145 -4703 5826 0
-6138 -3248 -9549 0
-7136 9632 8621 0
9141 5003 6097 0
8359 -3229 -7082 0
4078 -9965 1673 0
5626 4050 8392 0
8894 -8332 -6097 0
7763 9978 4750 0
8032 8923 -4646 0
1303 -8602 3108 0
1131 -1903 -8760 0
9174 7816 3498 0
4106 5101 -5636 0
3400 -5916 -3702 0
2099 -2102 -4129 0
3543 -6801 8383 0
-9877 517 -5502 0
-3937 -7075 3998 0
3832 1657 -3300 0
9247 8720 9676 0
-9502 -6648 6548 0
1732 -4941 -9098 0
-4570 -8828 3820 0
-5471 -9156 8734 0
1456 4707 -1983 0
-592 7202 9227 0
4357 2669 5456 0
-1337 -8882 -5941 0
-2053 7250 -7702 0
-708 5367 937 0
-600 -1337 147 0
-1218 5177 -9989 0
2494 7456 -4359 0
8548 6374 3366 0
-4559 8450 7630 0
6869 -9416 -9427 0
6102 -5641 -7163 0
6599 1395 -5494 0
8803 6560 3877 0
-9822 5455 -4750 0
4980 -5249 -3397 0
4602 -4931 -4797 0
8421 -4728 -4408 0
-8530 -7643 -4275 0
6293 1689 6208 0
-921 -787 -3441 0
2101 -5303 7178 0
-2099 8639 3313 0
6284 4023 -5981 0
-3398 6773 -5757 0
-4296 -9504 961 0
258 2691 -657 0
-2346 2438 -1155 0
3594 4075 -8017 0
-7418 -2761 -8883 0
4359 -9872 4733 0
-4071 7105 -5065 0
6215 -4201 -5654 0
3273 9529 -4664 0
-8013 7641 -5208 0
-2022 -8142 6209 0
1071 4457 -3476 0
4239 1325 4026 0
9876 8914 9738 0
254 8847 -6209 0
3523 385 2124 0
-6019 -4758 6333 0
7333 2735 -6626 0
-9096 -5179 5426 0
2440 925 366 0
-1019 8436 9703 0
-5370 -2655 -9790 0
149 -573 552 0
-3201 -1315 -5441 0
5979 3680 3090 0
609 -8616 -8862 0
-5265 -2275 7363 0
-3574 5687 2882 0
-7370 -6451 -996 0
-7499 -5351 1696 0
-3787 -1976 4304 0
-9721 -3196 4015 0
3338 2093 -5122 0
-9420 -2105 8446 0
-5064 -5826 -7543 0
7598 -7022 -3167 0
8126 -1937 5116 0
3746 -3487 4148 0
-5870 2057 51 0
6206 9747 -1904 0
-8042 -7748 5316 0
-7380 -8159 7358 0
-1416 -2535 -4131 0
8827 2909 -97 0
9009 -6968 4078 0
7327 5378 -744 0
-2032 -9401 9249 0
4186 4140 -11 0
-8038 -5977 -1480 0
4275 4350 3571 0
-2525 -983 8201 0
9400 7187 3977 0
9344 3918 4433 0
-9633 9884 6462 0
-3119 -881 -6285 0
43 -8098 -171 0
-5593 7018 2462 0
3571 4443 -3748 0
-8777 4257 -7248 0
8159 -3845 -1824 0
4469 9999 5352 0
-7868 9613 1974 0
-8577 -7619 668 0
7674 -4330 964 0
-9630 -1615 6180 0
-5607 4577 6761 0
-2397 3835 3463 0
-5765 9208 4418 0
-4343 -6876 8756 0
-3752 6724 -6876 0
-3435 7919 5141 0
-6836 -435 -8601 0
6 6617 3528 0
4191 5064 -4968 0
-7407 -9866 -2838 0
4456 -9803 -883 0
9118 6828 2679 0
-6390 69 -7743 0
2151 -4330 6574 0
-9334 -1933 -9638 0
-8764 -3054 3427 0
5842 -1144 -6391 0
-5854 8641 -4799 0
2832 -7095 6936 0
-2446 8793 5944 0
-9063 -5925 6864 0
-6971 -5962 -7740 0
3672 2138 -5354 0
-5498 -2248 7171 0
489 4752 -2323 0
762 6691 -6304 0
3542 -8103 -4030 0
72 -6953 -2125 0
5272 -9817 9521 0
751 1891 -8856 0
-1581 -2342 4412 0
-9965 1108 -4119 0
4807 -978 -3589 0
5830 1270 -584 0
7269 7488 -3470 0
-6792 -1652 -1948 0
7601 -9060 -2390 0
5487 6892 4154 0
-8949 -560 3482 0
5449 -218 -8394 0
-2689 -7676 2821 0
-8981 -8205 7064 0
-8682 -365 5549 0
7661 6628 2980 0
3738 2942 -2993 0
5788 -6331 3429 0
9877 -3614 -6997 0
9026 9875 9074 0
-6719 62 9966 0
-7725 -663 -2220 0
3045 3028 5058 0
-907 8345 6449 0
-2086 -6258 8001 0
-4837 4130 -7724 0
-592 -7751 -2624 0
4721 1692 -8672 0
-1440 -5003 3982 0
4517 866 8454 0
-4595 -4826 -6733 0
-8320 -6434 7295 0
-8539 -7256 -9200 0
2744 -4029 -3734 0
5029 2639 -9326 0
7868 1266 -9206 0
3846 -153 3403 0
-4185 -5403 -1354 0
4899 823 -4841 0
-1664 -8318 -7815 0
-1001 6702 -9138 0
796 2218 -8380 0
6384 -6498 -8549 0
5896 -9702 2899 0
-8151 3598 -7144 0
7695 -7878 4479 0
4999 -5574 129 0
-2530 -3291 -5021 0
-4059 -8758 6595 0
1733 8038 -9222 0
8655 3596 1593 0
-7858 -7333 7781 0
-1249 3664 2912 0
5769 -1692 6172 0
-8172 1786 7182 0
-2966 9178 8663 0
2307 -6506 9754 0
-3563 1603 5289 0
3866 -5456 -904 0
-8544 -8764 -2187 0
7664 8689 -2615 0
-2998 -5681 -9749 0
-2736 2068 4400 0
6914 8545 6354 0
-8039 96 1117 0
-1994 4235 3554 0
-3724 -8366 5376 0
5580 -1153 -3531 0
4833 -6310 5636 0
-5219 6499 957 0
4037 -5865 -4818 0
2477 -183 -5209 0
3084 -3898 -5097 0
2193 7 -9496 0
-1287 -2396 -6386 0
-4518 5870 -4671 0
-5430 -3638 7150 0
-7949 -7579 -6830 0
2703 3389 -2881 0
5786 -5219 -9232 0
-818 5690 1621 0
-3353 283 4979 0
9194 -4357 4122 0
-9275 3292 7276 0
1690 6819 7344 0
-9609 -8926 4639 0
-2540 4764 1996 0
9623 -8806 -6133 0
-850 -599 8694 0
6897 -5546 4302 0
-7417 8651 7699 0
1926 -9989 6027 0
9385 -8348 3059 0
5659 521 9552 0
1318 1420 4548 0
9748 -5257 6944 0
-8896 7430 2802 0
1776 7990 5007 0
-3130 6473 6481 0
1834 7674 -390 0
6234 -1096 -9324 0
4057 -2533 -6142 0
7969 -224 -6242 0
4234 -6928 -3377 0
7513 -3740 4344 0
-4260 -1674 5703 0
445 168 -1330 0
4323 -913 -6601 0
-2738 -2286 868 0
-336 -2969 2774 0
-3836 1420 7620 0
-6202 2673 7104 0
-3276 7421 -1408 0
-8170 -5376 7969 0
3651 4444 9983 0
7268 -2082 -6138 0
2260 -9136 -5588 0
7099 3465 8965 0
-1077 -1336 5117 0
-539 -6909 350 0
8350 8239 -2299 0
-7741 4043 4317 0
5964 -1543 929 0
2528 -2758 9629 0
1620 3222 4300 0
-5724 6916 2221 0
-8304 5511 -6201 0
-9501 -2378 8458 0
2317 440 9515 0
9365 -6164 5141 0
3412 -8162 -611 0
1671 2021 -3089 0
-5934 9107 7332 0
2650 -4279 3511 0
1837 -4439 -3280 0
-6051 -2459 3540 0
-6663 -2484 3475 0
-8029 -5711 3320 0
-6813 1217 3469 0
2534 -4141 -7390 0
7765 -5418 2319 0
9199 2647 3006 0
-6631 359 5720 0
-1959 -4434 -2499 0
-7555 6372 -983 0
8632 1663 -9159 0
2322 -9694 9635 0
-5899 -4050 -6709 0
-3179 4618 7283 0
3580 7821 -829 0
7539 -8314 7096 0
-2057 5916 -5996 0
-1016 -5616 -634 0
5092 -6308 -1468 0
-8781 -8210 -3125 0
2951 -3249 -2084 0
-2834 -8736 6063 0
-1995 -496 9347 0
-5859 2244 -1490 0
-6866 2806 842 0
-6965 247 5904 0
-6022 1523 7835 0
-1993 2014 6217 0
6418 -9779 9314 0
-4336 -3210 -4222 0
-6213 -9539 -4995 0
-322 2562 3481 0
-8618 -8204 3285 0
3693 562 239 0
8016 -5297 9284 0
4355 4770 6231 0
-7378 -8765 -1474 0
6269 -3912 -4261 0
199 9253 6524 0
-4715 -5892 8473 0
7106 9892 1406 0
-8270 -6583 1174 0
-3322 -2714 3985 0
4675 321 -4901 0
-724 -8353 -4441 0
-874 -4362 7467 0
-9058 -692 -4662 0
-1807 -637 -2513 0
-309 -1159 18 0
-1814 -4259 5721 0
-8481 -5743 -5031 0
71 3053 2354 0
-8436 -5525 -128 0
-3631 6902 -1653 0
-383 -8868 -8673 0
-9929 5727 8433 0
-3906 -2918 -319 0
-5352 5549 8479 0
-6885 -6353 -6057 0
-2002 -2392 -5967 0
8677 9858 4438 0
-9754 -4273 -6283 0
-1506 4715 8738 0
-9607 -8576 -7593 0
5957 -2885 2065 0
-2630 -4778 -5093 0
-857 -7567 -9291 0
6392 -2705 4611 0
5444 1318 -1175 0
-9978 -8703 7369 0
8730 8147 9837 0
-9502 5215 1306 0
-441 -1532 7278 0
-7045 -4288 982 0
-9742 9124 3060 0
3032 -5123 -4477 0
4444 -1346 -2199 0
4809 8640 -5917 0
1899 3476 1500 0
537 -7945 -5560 0
5983 3601 9583 0
6380 5370 3875 0
8021 -3331 -5111 0
5730 -1609 -3596 0
-4900 8915 -3773 0
-985 9609 -6792 0
6687 -7262 4824 0
-2768 -6806 3948 0
-419 7662 -5894 0
2879 -5549 -264 0
6527 1292 -4397 0
3652 2612 -512 0
-5937 -3655 7854 0
8664 -915 8791 0
885 -2926 7455 0
-595 -6645 337 0
6600 -1727 6508 0
2678 -7720 8273 0
-1848 -3048 5779 0
7119 -1109 8867 0
2525 -6749 -8170 0
-5811 -463 -9259 0
-2969 1846 9920 0
8238 8068 -9937 0
-7536 -1292 -6190 0
7056 -6689 6814 0
-1974 -3280 5849 0
-3595 3925 -7697 0
7548 -3596 -6726 0
-1872 8270 1942 0
1644 6072 9428 0
4691 -2079 -8903 0
7425 2182 1917 0
-4262 -3176 -4323 0
-1284 1933 -4236 0
-9203 7223 1303 0
707 -9888 -3642 0
9267 766 -949 0
3630 -3027 -8398 0
-9256 -3426 6848 0
-934 8985 6386 0
5541 3291 7126 0
9486 2643 7826 0
-8065 6237 -5562 0
-2402 9562 3474 0
5135 8381 -2902 0
4647 -8883 -318 0
-9860 8819 7127 0
-789 -4220 -9449 0
2686 -8386 5707 0
5009 -2660 3653 0
-2172 -2006 4481 0
3314 545 -2121 0
-5327 -1566 2997 0
3991 1186 9859 0
7026 7994 -1607 0
-2871 -353 9550 0
3335 935 -9883 0
1763 -3435 -4062 0
-7574 -3842 3726 0
-6435 -7238 5663 0
-5096 7564 7326 0
-5937 -4258 -2358 0
-5744 7277 9409 0
-9073 -6588 -767 0
-6333 7684 -9330 0
6644 519 -641 0
-2792 913 -1950 0
7802 4109 -460 0
7568 2420 116 0
-6295 -632 371 0
7258 -6542 -3534 0
9043 -2066 -8451 0
-1825 -9648 2904 0
-7948 -5594 4154 0
-7949 -6614 -9678 0
4885 -6729 -150 0
7216 -6370 7388 0
-2271 -9462 5969 0
6352 662 -392 0
-3473 -8874 8405 0
-6406 3986 6919 0
-5867 9062 4093 0
-7337 -4509 2643 0
3117 7086 9379 0
-5026 -419 915 0
-3276 5287 8688 0
6570 -8310 553 0
1511 3812 -8063 0
7834 91 2858 0
6774 5494 -9501 0
6467 -4643 4790 0
-6441 4132 -4508 0
3139 2443 -1738 0
-6195 -4194 955 0
-1757 2515 6717 0
6408 -1826 -9566 0
371 4849 -3279 0
5814 1959 8564 0
5652 -9365 -9259 0
-9649 7012 112 0
4493 -2269 -7781 0
7463 6007 -5640 0
-3109 -2346 -9372 0
-4086 8633 -4257 0
-3557 -4700 8514 0
-5161 -564 -8092 0
-5384 8004 -1314 0
-1509 -8202 -1927 0
-4194 -5468 -7821 0
-1276 -7400 -8339 0
6673 5485 -3827 0
2767 -2957 4181 0
-9270 -4690 346 0
-7753 9944 6105 0
3828 -4383 -7511 0
8146 -8995 866 0
7416 3991 1065 0
-6901 -4881 -5337 0
-3153 -4603 -5665 0
4484 -8119 -6999 0
-9445 3142 9600 0
4772 1777 -453 0
-6392 6566 -711 0
3453 5817 -7563 0
197 3479 -1164 0
-8376 7263 -1356 0
4242 -9065 -7198 0
5590 8878 -9846 0
-4325 -5824 -4286 0
9848 -1454 -9186 0
1591 -2200 8490 0
-1861 -913 2589 0
-8620 -2464 3053 0
-3183 4940 8858 0
-2165 -4185 -1722 0
-1491 -9970 8698 0
9194 -5018 -8357 0
-9248 -5313 9331 0
-4141 5448 1247 0
-6943 4379 -2955 0
-7108 -1585 -4120 0
-4264 4859 -2398 0
6065 1996 9536 0
-685 9623 -8210 0
-5497 -2688 -4200 0
-3710 5356 8266 0
3069 -569 -4075 0
-5296 -2209 9863 0
-4129 1483 -7478 0
1687 -1981 2956 0
1828 -4595 -9924 0
-2287 6248 6708 0
4476 -6548 898 0
8648 -9827 -8672 0
-7649 -67 6838 0
4188 -1172 7840 0
-8387 -3013 8684 0
-350 5501 4150 0
-9101 -6555 -5882 0
5507 -8652 9068 0
-5971 5204 4906 0
4964 -9169 -2091 0
-9348 2871 -1253 0
63 -5300 -9833 0
-32 2187 -6080 0
-5249 -1612 -7844 0
-3580 -4362 -8749 0
6142 -9528 -6465 0
-3678 5609 -8964 0
1166 -8996 -4050 0
9234 -7946 -9225 0
2850 2680 -1377 0
4150 -2505 -843 0
-7024 -8426 239 0
-8379 5526 -5907 0
-1386 -8889 -8877 0
-2237 -5716 -2398 0
9974 7716 8704 0
-6224 1254 3202 0
1956 -6049 -8038 0
-2550 -991 -3955 0
-9677 5070 -7429 0
-7027 -4473 5410 0
4043 -9500 -2309 0
-2943 -6132 -5875 0
9154 2920 -7922 0
-826 -9010 5375 0
7785 6260 124 0
5880 -7263 8942 0
7420 6522 -3916 0
2303 9632 6309 0
9246 -8647 -9437 0
928 -251 1931 0
2386 -9377 7529 0
7556 -8430 1993 0
7280 -669 8272 0
5882 -1231 7040 0
-7664 -2929 5697 0
-9286 1544 -3220 0
5942 9020 -4492 0
1876 3130 -669 0
-2414 -3304 -2619 0
-4325 -8215 1446 0
-1488 1983 9384 0
-9828 1971 -4775 0
-5973 5986 2436 0
8638 -2345 6898 0
887 -2469 894 0
8667 5913 2362 0
5312 380 -1494 0
6136 -4690 2404 0
-1616 -6531 4543 0
4077 2117 7799 0
6963 -3359 7938 0
-9935 -5639 8068 0
174 1499 -5584 0
-142 8872 9310 0
-4132 415 3270 0
-9309 1505 -1231 0
-8355 2147 7036 0
667 -5077 4286 0
9335 -4675 -4605 0
4354 -147 5017 0
-6354 -6085 4003 0
9933 -6726 -3353 0
265 1359 -3234 0
-4506 -1687 8317 0
109 7503 9598 0
1159 -3976 -9134 0
9606 -875 6462 0
2248 8681 -6438 0
1019 1784 6484 0
-9008 -1100 899 0
9699 7797 8327 0
-8493 5579 -6693 0
963 -9904 6389 0
-1744 -8501 5840 0
7460 3829 -8525 0
6055 3011 4422 0
-1756 1637 6647 0
3217 917 -9848 0
902 -4905 -5445 0
-6726 -6545 9839 0
-4261 1353 3268 0
-3588 2583 1104 0
4136 8528 -2876 0
-251 6644 -1936 0
33 -4619 -4657 0
3635 -2971 -254 0
-6434 -5817 -34 0
3854 7876 -6531 0
8874 799 -5317 0
-8815 -5829 -7548 0
-6485 -3758 2070 0
5736 -6396 6469 0
-4723 900 -450 0
-6471 1023 4522 0
-728 2243 -4455 0
8100 -4652 -7494 0
-4133 7158 5420 0
-212 7137 4182 0
-9231 -572 -6479 0
2680 -1540 -9395 0
-9731 -6534 6955 0
-4539 -9673 9118 0
-777 -9584 4289 0
-7047 -3759 1596 0
5261 -8991 -5601 0
-9314 -1314 -3611 0
1779 -8726 -1248 0
7711 -6121 -8596 0
-3115 -5465 -5451 0
-4421 -9654 -897 0
-8858 -9597 8224 0
-1832 7952 1551 0
3141 6103 3543 0
7596 8816 6771 0
9362 4332 2199 0
-4972 -7722 -9244 0
660 701 4560 0
6504 6571 -4484 0
3675 5640 -6966 0
-7736 -7705 6048 0
8327 -7567 758 0
9296 3128 -3042 0
9056 6911 -5472 0
9558 3168 5825 0
4037 7853 -5364 0
9754 -8636 -4381 0
-968 -4076 938 0
2515 -5241 -596 0
-6533 5213 -1388 0
7232 -9912 9516 0
1936 -9888 -2040 0
9304 -72 6316 0
-9616 -7772 -3216 0
6955 -5616 -6986 0
9487 1748 -2038 0
1144 -4945 3888 0
-6457 -5415 -4393 0
-6302 -3319 -132 0
-6642 -6346 2557 0
-9918 -1019 2462 0
2220 -2628 9723 0
-6316 -5755 -8177 0
-3825 7793 2291 0
-780 9989 -6868 0
-5183 5288 -6606 0
6825 -3052 -7019 0
-7141 -1107 -512 0
8250 3901 -2842 0
665 2420 8645 0
-5967 3979 -332 0
-2894 -8279 -7173 0
-3794 1043 -2806 0
-811 3722 -8894 0
-1128 5592 7105 0
-4743 -764 5701 0
-3574 2803 -6537 0
-9117 616 -607 0
3901 7986 -9159 0
9136 2629 9904 0
405 4441 4420 0
7828 6367 -4961 0
-6504 -8985 920 0
-9388 9837 5244 0
6796 -6078 -4123 0
-9313 2510 2489 0
6876 532 9941 0
7554 -128 -6851 0
5705 -2473 1276 0
-7798 -6355 1418 0
9550 6179 2760 0
3650 -9674 -1425 0
-6514 9217 -3940 0
-2434 -8661 392 0
-6568 6899 -729 0
-5021 1362 1313 0
503 -9954 1539 0
6543 -4963 5874 0
-8780 3135 270 0
7554 6454 -6708 0
-6877 -4224 979 0
-1375 -4900 2367 0
9046 -1226 710 0
3874 -5857 -2239 0
-4874 -5737 9024 0
-2776 -8002 -1498 0
-5939 6982 4990 0
-5319 -1457 -1409 0
3393 -1228 -6873 0
3280 -3194 9086 0
6848 4366 140 0
6938 1004 -1822 0
-8912 240 -8167 0
3002 136 -1881 0
-9565 2518 -6163 0
6982 1670 7742 0
156 6456 1690 0
5549 9720 1370 0
-1424 4740 -7705 0
-7861 9701 -5861 0
-8057 -7015 -9440 0
-8455 5362 7726 0
-3934 -1081 -4417 0
-5175 8539 2664 0
1290 -7850 5407 0
3117 8231 -8239 0
-8398 -871 126 0
-3684 122 9970 0
-8244 1256 7214 0
-6887 7988 -5612 0
-2979 6247 216 0
-3978 -1229 5131 0
2492 2477 7298 0
-6076 -6550 -2908 0
-2703 -7266 -6692 0
334 -3011 -2586 0
-3072 6376 6077 0
-2058 4798 4630 0
-4940 -6366 -6374 0
-5717 -8474 -8480 0
4229 -8862 1305 0
-3749 5670 2084 0
576 -3317 548 0
-2980 -3023 930 0
-5743 -5002 8445 0
-7364 8550 -4413 0
-2783 9455 8115 0
1036 -5556 -8405 0
-6301 -6335 2861 0
-6145 7416 -5551 0
1680 2848 5986 0
8058 -2009 3013 0
4124 -259 -3793 0
7249 7217 1548 0
-4471 2942 2968 0
-5009 5061 -7187 0
3419 756 -6606 0
-8939 -9939 -3557 0
2041 -1676 8776 0
-7005 9011 389 0
2835 -6719 2269 0
-6809 631 -217 0
4623 -1787 -5417 0
7819 -2461 -5998 0
5181 -4064 9137 0
-3909 -7483 1562 0
-3344 2340 -4772 0
5114 1443 4519 0
-5582 -6635 -2073 0
3024 -1895 3347 0
-9809 3331 1840 0
-919 8779 6914 0
749 5009 -3648 0
4338 -6067 4655 0
-6340 -9166 2299 0
-2986 2614 4663 0
-2636 5623 9096 0
7760 -1481 -6082 0
-2180 -1094 6668 0
6347 850 -9112 0
-5788 -9461 -8169 0
-2403 5517 -8876 0
2345 8650 -8863 0
-1403 -3546 -117 0
-8477 6338 3713 0
5814 8958 2109 0
-856 9307 4666 0
4183 -2620 9690 0
-525 -5214 -616 0
1165 -8156 -5076 0
-9403 5004 8183 0
4459 -2743 5418 0
1136 9518 -5172 0
-531 883 4520 0
5531 2157 -1073 0
-3230 3782 -9649 0
-8625 -8880 7991 0
-8707 8481 -7080 0
-743 6466 1845 0
-5407 -8975 -2510 0
1087 493 5735 0
-6934 9931 5213 0
-7423 -2760 -1082 0
-4470 4378 6407 0
-562 -3337 -9360 0
-1318 797 -1348 0
-8913 8608 -1100 0
-435 -3698 3643 0
8864 175 8911 0
6671 -9340 2762 0
2967 -3713 -6936 0
-2855 7441 -4267 0
-1715 7439 7535 0
-1355 -6491 -6871 0
4951 3368 703 0
5539 2353 5411 0
5834 7262 -7843 0
-2847 466 -8037 0
-6197 -8468 -333 0
-9792 -9183 -8491 0
-9795 -6771 2336 0
9321 7571 -9851 0
-2470 -6914 -205 0
-3128 -7848 4671 0
3213 9748 -6125 0
6038 3832 -5497 0
-2870 785 -6308 0
-9054 -440 7976 0
9678 2986 -7930 0
-2768 4605 9425 0
9649 -1220 -2427 0
6627 -8747 -8424 0
-872 7100 9649 0
-6895 3616 3544 0
-1969 -5095 6751 0
8696 -7509 -4972 0
7660 5074 6366 0
-2644 5325 -1017 0
-5039 -1159 -5176 0
-1246 861 5637 0
-7697 1659 9943 0
8905 -9346 118 0
-9451 -4898 1500 0
-8667 -3781 -1156 0
-8034 -3077 2964 0
-958 6930 -5900 0
1029 -3099 4845 0
-5154 -5420 8390 0
-7625 -9771 -6572 0
-3203 6752 4150 0
8035 -3014 -2908 0
-6832 -8344 7449 0
-8527 -9403 7148 0
-4770 3176 -966 0
-5069 -253 1628 0
-4692 -5648 802 0
2369 -1446 -6847 0
-106 -997 -1165 0
-3047 -9164 8399 0
8473 -7184 -468 0
-5777 -1783 -3714 0
590 -1152 2549 0
-1808 9794 -7368 0
7597 -2409 7757 0
3401 -8810 -7232 0
-5965 9139 5489 0
7099 907 -2147 0
-3045 -5179 -7313 0
861 -9192 -4543 0
-6388 -1816 -282 0
2590 7268 -675 0
561 3793 3334 0
2605 7266 2335 0
-7519 3021 9971 0
4000 -2607 -1039 0
449 -8393 -2226 0
-2102 -2808 9402 0
5224 -3825 5184 0
-2183 -9282 -8907 0
2580 2096 3435 0
-6533 3892 2361 0
9002 9895 -9330 0
9851 -9144 6067 0
-794 -6068 -8618 0
-8621 868 3139 0
7087 -4492 7294 0
1282 -8795 952 0
-6986 3065 1016 0
6695 -1334 1946 0
-164 -8703 9550 0
469 6605 -2885 0
7147 1869 7568 0
-423 1446 -6377 0
787 -6979 -7614 0
-8754 1369 1080 0
1516 5660 7000 0
-3067 6858 1854 0
-8047 1033 -587 0
839 6233 1822 0
5167 -8189 -5136 0
-9541 -1711 -1400 0
-7487 8956 7194 0
-1930 -6494 -7882 0
3676 7119 -3327 0
3370 -1634 8458 0
-8626 -9438 -3328 0
-3773 2018 3831 0
4148 -1695 2034 0
6902 -8617 -4515 0
-2858 5611 -9633 0
6454 -8719 9213 0
-9369 -8434 -6663 0
-3148 2852 -7378 0
-5961 1228 5893 0
-7405 -4568 -7258 0
-7477 -9880 -6979 0
8547 5261 3263 0
5289 -7353 -4302 0
4122 8596 520 0
-7949 8217 -3030 0
-4821 4966 -9062 0
-2583 -9007 7200 0
-5999 -1220 4942 0
2092 4927 -3989 0
6725 9531 6846 0
7786 -2951 -1743 0
7427 8830 7399 0
3721 2726 3736 0
2058 954 -825 0
-208 8301 9690 0
-8659 2288 3116 0
-9585 3629 -7622 0
4859 -8410 6459 0
-6364 3361 -6193 0
-7079 9974 -1058 0
-5133 396 -2380 0
140 7478 -8019 0
-5870 -4806 -4686 0
2750 -2569 9079 0
6419 3112 5580 0
4532 -2907 -7862 0
6143 2376 5020 0
-2237 -4585 6641 0
7982 -5462 -7445 0
-8958 -3491 -7677 0
8439 -1644 5771 0
4708 6073 -6205 0
6396 7327 2708 0
7743 -1116 5551 0
1663 -6842 -7930 0
-6174 -7155 7572 0
7988 -8837 -9536 0
-5427 7962 3492 0
7966 7495 -569 0
-3208 -818 -3196 0
2191 7019 9131 0
-8317 157 9501 0
5964 -7081 -7221 0
5386 2671 -1205 0
-1173 9491 8703 0
9527 -5519 5008 0
-3310 -9391 -7171 0
4698 6263 -1731 0
672 7844 -429 0
7477 4196 -7227 0
-2679 -1841 9832 0
-2719 9929 -5807 0
6232 3129 -9597 0
5787 -2088 -611 0
-1575 4573 2656 0
2896 -8911 8713 0
6678 -7570 -6191 0
-9933 -8858 -1739 0
-7403 9890 -7182 0
-8483 2658 -5322 0
-6898 -7776 9744 0
2775 6133 424 0
-8829 1285 -6890 0
1703 -9218 1310 0
7642 -6301 428 0
-1742 3824 9193 0
-9508 7841 -6651 0
9317 4968 -902 0
2935 8045 3884 0
3720 6025 9028 0
-771 -8026 -4281 0
4479 -6469 -5796 0
-1546 -13 -6501 0
4471 -2027 -9989 0
-8429 7971 8014 0
238 -2316 -2554 0
-6728 -6664 -2255 0
8782 -2668 1949 0
4360 -1791 5895 0
-3676 -416 -8091 0
4173 -3960 -692 0
8394 -1251 3637 0
2549 7279 615 0
-8330 -2983 2244 0
6081 2012 -2318 0
5029 -5511 1375 0
-7552 -9829 -9941 0
6020 -7199 -9852 0
2184 5621 -7982 0
-3671 -6452 -1570 0
-2609 6271 -8330 0
7223 7530 626 0
9705 -758 3045 0
-3142 7119 -195 0
1273 9266 -847 0
798 -281 -6205 0
-5940 -773 -7796 0
1257 3727 -8783 0
5328 -187 7132 0
-3008 -1728 -2479 0
7986 1223 -7938 0
6658 -5885 -4066 0
-8616 4998 -9715 0
3907 6487 2403 0
138 -8379 2959 0
-1812 9491 3919 0
-2389 -7844 -4219 0
2333 -3566 2090 0
1971 -4344 -2308 0
-593 -1763 -9222 0
3414 6214 5436 0
-8121 9033 9291 0
-3801 6035 -4639 0
-8695 5379 8936 0
-5437 7864 7497 0
5105 -4538 5937 0
5375 4770 6949 0
-5956 -4428 2520 0
-6725 -83 -8902 0
-5290 -7757 9156 0
5848 -1136 -1277 0
8961 -180 2087 0
2559 -7764 -6682 0
-5288 -1647 6587 0
-3815 -2196 -3670 0
1119 -6458 -7918 0
6303 8402 -7422 0
4798 -8973 1722 0
5529 -1202 82 0
-2073 -7389 -2889 0
1068 5276 6391 0
5710 -5706 -4650 0
-8650 4340 -5054 0
3850 1707 -6070 0
-1517 -5894 -3566 0
-4589 -7170 3477 0
-1744 -5739 -7213 0
6373 9260 3335 0
8115 -2037 -8019 0
9670 3459 -3558 0
-4779 6243 -1940 0
9035 6013 9529 0
9596 -2060 -2684 0
4472 2895 2728 0
47 5420 -5743 0
-4912 4979 -2117 0
-6576 1897 -859 0
-7443 5801 1224 0
-5122 -6045 -8818 0
-8929 2939 721 0
5991 -9203 5330 0
-7277 6252 -6792 0
-9159 4669 4439 0
-3523 -4780 -9496 0
9848 148 -1072 0
6052 509 -8741 0
5462 -8017 3973 0
9718 -9941 1098 0
-2474 9742 -9886 0
-786 -105 9737 0
-3766 -8516 -6379 0
-4728 -7547 7156 0
418 -3578 1069 0
-7098 3584 -967 0
-3403 130 6422 0
-1527 9501 8909 0
839 6289 8547 0
7307 -7230 1170 0
-2980 5614 -763 0
-4561 -7198 3061 0
9530 7084 -5957 0
9154 -9243 8172 0
8138 -5333 -209 0
-9032 -1151 604 0
2865 8257 4634 0
-8154 3973 -4496 0
-8440 -5933 -4876 0
2293 1373 -9992 0
5145 9054 346 0
-9432 7526 4416 0
8025 -5678 -5177 0
2621 1560 -9921 0
2266 2811 1923 0
34 3810 328 0
3991 8820 -2996 0
719 -3060 1822 0
2224 -2188 4737 0
7045 -3244 4785 0
-5546 -5532 4998 0
-3762 -8357 -5658 0
1245 -8873 9734 0
-9784 -5692 891 0
-3817 -6683 8085 0
-8417 -5578 5974 0
2165 9869 6297 0
3559 7278 -2413 0
3376 5265 -5433 0
9363 6888 -8559 0
-5241 -4736 1038 0
5036 447 -9990 0
-6559 -148 3167 0
7220 -9497 -2035 0
-5661 209 2847 0
7316 -8376 7984 0
-6340 -2650 2684 0
-4738 2876 3443 0
-6761 7086 273 0
-1510 7798 -6613 0
-7035 -3003 -6453 0
-6906 3749 6400 0
-8729 8157 215 0
8334 -6397 4676 0
4773 7846 3362 0
-7129 -9237 -8774 0
5275 -6363 -2080 0
-1872 -8651 5158 0
9953 -5693 6328 0
1444 6273 7294 0
-1971 -3172 9311 0
-4066 -7490 -7743 0
4718 953 -9654 0
-6789 -9533 2890 0
-2890 4852 1903 0
-4336 434 2507 0
-7187 9538 1066 0
3200 8574 -6231 0
-6188 -8884 6278 0
4369 1651 -3911 0
4206 1988 8922 0
9235 -9416 -5168 0
-7331 7847 -988 0
-3081 4019 1675 0
-387 -1289 4326 0
9004 -9756 5950 0
5428 51 3145 0
-625 -878 -694 0
9555 -6498 6236 0
459 2040 8210 0
-7154 -6606 5878 0
1479 -8395 -629 0
371 -4109 -3513 0
-3126 4898 1116 0
-5471 -633 -9777 0
3229 6628 -6402 0
7931 7812 -5587 0
-6500 -3098 -7917 0
-6329 -5853 9365 0
5994 425 -8954 0
-4753 8315 6011 0
7366 9452 -9975 0
8862 -4933 -9585 0
-624 -1867 5701 0
-4508 -9215 3162 0
6320 3038 431 0
-4329 -2320 1226 0
6529 6545 3724 0
-9551 4298 1771 0
6115 5821 9853 0
-2787 -1942 -8878 0
-4049 -5789 1077 0
8551 -3314 5679 0
2067 4221 -5600 0
5413 5382 -3302 0
-2020 -4916 8877 0
-6680 7737 1171 0
5441 57 8553 0
9777 3263 -7200 0
6658 9259 -8102 0
6211 3500 255 0
7921 -2909 2978 0
-3446 -8957 -2034 0
5455 1045 1620 0
-4646 -2563 -9654 0
7311 6569 -5346 0
-9354 -6282 7813 0
-7693 -3146 4274 0
-8785 9329 3534 0
-2004 6723 3300 0
5407 3905 -6240 0
-4656 -4169 -8705 0
-3032 3980 -4247 0
3532 8348 5802 0
-1488 9414 -8432 0
-4935 773 7468 0
3173 6774 6372 0
5795 -2853 -4276 0
-2782 3990 -7340 0
-2199 1144 -2734 0
-4896 3783 -4696 0
1280 -6003 9662 0
-1977 1893 -6826 0
-3773 -1381 -9104 0
226 6905 6383 0
-2519 -1069 -8194 0
-9105 1699 -8081 0
-9616 6148 1495 0
9537 928 -6017 0
9760 -2913 5686 0
-2577 5937 -2681 0
-2966 5466 7701 0
-348 1215 4211 0
8562 8244 -5089 0
-1215 -1347 -815 0
2626 804 -3451 0
4882 -522 2452 0
-7557 -930 1528 0
-7653 -6698 -3301 0
-3295 7455 -9142 0
-1915 -3885 3524 0
-1508 7262 7259 0
-3998 4169 -5523 0
-8097 -6073 -6438 0
6276 -1474 -4460 0
8657 -7137 -841 0
9503 9021 8691 0
8278 -9540 4588 0
-506 -9141 -5825 0
9229 3573 -966 0
-7825 -7786 2802 0
-5318 6707 -5372 0
9867 9204 -1922 0
3254 8549 -1443 0
-2401 -9690 6896 0
9628 6736 4395 0
9670 4122 5794 0
-5615 -403 8949 0
-6230 -9412 -8560 0
-2270 5776 6042 0
6561 8390 8787 0
-2046 -7045 -9553 0
165 6031 -8990 0
-1493 -6439 -3228 0
7537 9357 -4681 0
-3558 8487 1730 0
6866 -7952 -5767 0
-493 -1801 -4362 0
3533 -6076 -5469 0
701 6551 1670 0
-2995 4668 8897 0
-2437 -5646 -8083 0
-6124 -9289 -8845 0
-4575 978 6863 0
9386 6154 9758 0
1959 684 -3438 0
-5270 -9024 4449 0
823 -3152 -3352 0
-1814 -3866 -3206 0
-494 -7816 7406 0
-2284 2838 -6700 0
9384 4335 575 0
8731 -1088 2452 0
3806 -8897 -1583 0
-1064 -5491 -4630 0
-4037 -537 5692 0
-4733 1903 6372 0
8609 -762 -3219 0
-9303 9439 -6859 0
4741 8374 1652 0
-7177 1859 -9549 0
6153 -6757 2032 0
-3776 -1939 -4344 0
-9414 772 -2699 0
843 -5515 -1978 0
1686 1570 -1120 0
9754 2588 -2447 0
3652 -3617 -5550 0
3996 -5818 3283 0
-6859 8336 -7798 0
4937 -5859 3154 0
-5812 -2328 3008 0
-8364 7146 -9642 0
8322 -9600 -6037 0
-5937 8974 -3650 0
8148 -214 7925 0
-7035 -8659 -8127 0
9799 -3108 -2114 0
1871 -5912 5037 0
4593 -6311 -6135 0
-225 -9549 -6827 0
2917 -5951 5764 0
-3780 -4881 -1502 0
4379 1493 2889 0
4080 5140 -5226 0
-3299 3687 -9743 0
1855 -9180 -5452 0
4320 6015 -5617 0
-6671 -6304 -4305 0
7993 -3917 7259 0
875 689 8062 0
-7293 -526 -1027 0
7418 714 205 0
7620 337 317 0
-5954 -4868 2821 0
-8789 -8035 -4686 0
3087 4997 -4402 0
-1397 -2342 3343 0
-7552 -3299 -131 0
3585 -5477 3410 0
3593 -4412 9257 0
296 -8610 -6636 0
-54 -40 7010 0
-8437 -2658 -9712 0
-1930 -7218 -8154 0
3110 8059 -4782 0
5200 -8545 -1936 0
2600 5623 -5335 0
-716 -2789 2963 0
-7763 -7365 -4651 0
8284 4664 -4860 0
-4610 -2229 -916 0
4715 8726 -1188 0
-1007 8511 -205 0
7032 -331 8890 0
9508 4240 641 0
1369 -8700 5775 0
-9239 4401 8650 0
880 -4538 -8102 0
-4625 2683 -2351 0
-1171 -4061 6503 0
-3244 -8313 8820 0
3395 -5071 8880 0
6069 -1781 -4730 0
-1340 5169 -8696 0
-4105 1233 -3374 0
4553 -8477 5794 0
-1484 -7940 9378 0
3613 3236 8116 0
1159 3595 8452 0
194 -4691 -6143 0
-5945 -5189 -2480 0
4209 -5430 -6522 0
627 7012 9717 0
9168 7055 -8609 0
-9368 -8601 5 0
8469 -6409 4289 0
-7937 -9370 -7331 0
6473 611 318 0
4951 -2513 6749 0
7909 -7925 6756 0
-5455 -3478 -6275 0
-4649 -5333 -8749 0
6772 948 5148 0
-7540 -346 -7476 0
-6372 -4988 8456 0
5738 -6704 7 0
3499 -9258 1216 0
5071 -4057 -1600 0
2504 3860 -4278 0
-5930 4279 8730 0
-5822 -5938 2350 0
4233 1760 5217 0
-1602 3516 5036 0
370 827 -3307 0
-3594 1809 -8868 0
3332 6449 -3660 0
-2798 8565 1608 0
-559 -474 4669 0
8733 156 9977 0
2317 -1225 150 0
-7545 -332 4266 0
-2360 -8173 -2141 0
4961 -6109 9016 0
-1278 -4134 -6900 0
4278 9760 -2114 0
-8906 -8288 -7518 0
-4989 6043 3814 0
6429 -9255 2232 0
4854 5137 8372 0
-9123 6851 -3616 0
9431 -4390 -6017 0
9838 9329 -185 0
-3080 2861 -3345 0
-5456 -7040 8676 0
280 5403 2467 0
-9486 -1475 -2259 0
7365 -9920 -5601 0
-4877 -2135 -4807 0
6902 -5509 -4903 0
6658 5256 4531 0
2357 3000 -6552 0
8958 7931 8339 0
-1182 -9847 3298 0
4155 1385 1951 0
-9345 6557 -5567 0
-9517 8951 -7829 0
4491 -4159 -5667 0
-4485 -6137 -7955 0
8426 7880 6832 0
-9741 6031 9290 0
-1044 8535 3031 0
-3048 -6953 406 0
1830 1120 6472 0
4223 9970 8280 0
3694 6062 -8657 0
-2750 -3638 6818 0
9112 -1998 -9187 0
227 -9527 3578 0
534 -2764 -1264 0
6979 -4019 -5361 0
4310 -8452 5960 0
7964 -1831 -7263 0
-9472 6497 490 0
10000 7865 5989 0
2951 -1553 9794 0
-9842 7679 -9251 0
4537 3324 -4015 0
8692 3815 6234 0
-2497 2968 -9258 0
-4712 353 -9053 0
3142 3240 3192 0
-9527 426 -5335 0
6981 -1515 7517 0
-7020 7039 444 0
8645 8609 5576 0
-1974 -1228 -6240 0
6879 1957 -2897 0
-8578 -4757 -9895 0
-3761 2852 -4218 0
-7896 -9485 -7102 0
1956 -7771 -172 0
-945 421 2032 0
5312 -4556 9741 0
-8725 4255 -4887 0
-142 6829 1495 0
9768 -2933 29 0
-3888 9890 6913 0
-1537 -369 5224 0
2184 6885 1617 0
7316 -9670 -7994 0
-422 -3150 -6201 0
-8894 -6095 6732 0
5853 -946 -2262 0
-13 1587 -2733 0
8191 -684 -4484 0
7392 2556 8571 0
8745 2578 3931 0
5773 -2365 -9396 0
-9302 3683 -9202 0
-1298 1934 3658 0
-4433 9492 7942 0
-9282 1784 -5216 0
9336 7364 -3552 0
4252 -5406 -3067 0
-6393 -4171 2075 0
4793 -2021 2005 0
9631 -1802 -1862 0
1804 -8277 -8720 0
9366 -8051 5277 0
5692 -8231 -6838 0
6549 -7948 2143 0
-1015 5566 3519 0
4330 4416 9887 0
-9053 9151 -7422 0
8547 -7285 -1001 0
-292 1886 -96 0
2718 4197 6914 0
4705 3993 -7093 0
6736 874 4371 0
1292 -1675 6857 0
-2061 -5116 -3330 0
-8223 -9699 3421 0
2706 5872 8800 0
6648 -4425 6291 0
-1785 1504 -3682 0
6812 4079 391 0
-6143 3324 830 0
2231 6851 -7938 0
-928 -3121 -4702 0
1226 -6154 2336 0
1891 5495 8488 0
283 9410 -3783 0
-587 8036 -6365 0
152 -1058 2482 0
-1487 7005 -5827 0
-4420 4065 -7315 0
-7643 6569 294 0
-6472 -7196 1754 0
-9298 5795 4945 0
6727 7450 2311 0
-1861 -8113 5283 0
-1059 -1293 2295 0
-1861 4052 -1757 0
9201 4599 -7887 0
-6512 7571 1071 0
6911 -9272 -1363 0
6121 7351 5809 0
6786 -8700 1104 0
541 1628 4993 0
-2298 5097 8368 0
-1668 6424 -740 0
8511 5676 -2328 0
3166 -8404 -8299 0
-7186 -3515 3066 0
-3796 -5899 -8362 0
-2283 8063 4285 0
1589 3401 -4213 0
8105 -8527 -9243 0
-7734 -9456 -6921 0
-9695 4716 8181 0
-9702 -5958 9861 0
5280 4864 -2439 0
-3562 4268 -9747 0
-7165 -2707 -784 0
-8411 -3650 5785 0
-3964 -8761 3305 0
7956 5862 6034 0
5261 -2919 -7099 0
2385 -2667 -6643 0
-4835 3768 3574 0
7004 1465 7418 0
7032 5475 5677 0
2715 9305 -4316 0
5761 -3514 5391 0
226 -4642 3912 0
-9522 -1230 -4479 0
7532 -5041 4960 0
-7671 -486 -8793 0
-537 8321 -9886 0
1820 -3525 39 0
-1562 4 2738 0
2148 -7419 -369 0
7779 9797 -2329 0
9380 8 -5704 0
-537 -4758 -8729 0
2296 7716 -9095 0
3749 -231 7626 0
7087 -232 -6444 0
-1588 7948 5258 0
7686 -1260 -217 0
1667 -5223 9475 0
6670 -1669 8482 0
184 -2618 -9481 0
-5575 -9389 -4335 0
8775 -942 3900 0
-8834 -6225 2263 0
-6613 -3717 -9726 0
-1635 5926 2912 0
7390 9154 5578 0
2348 8509 4775 0
6255 -6823 2165 0
892 -4054 -7011 0
-6770 3544 8096 0
-4631 -6457 -5890 0
115 -8472 -8101 0
4332 7502 9062 0
7914 -6663 5329 0
1571 -6251 5052 0
7284 -180 1418 0
-1258 -1241 2948 0
8776 -2200 6347 0
-1863 -4195 3388 0
-2480 3421 -4862 0
3971 1000 -1832 0
4705 5581 5962 0
-1021 4846 -489 0
-6652 4821 9921 0
-9341 -494 2900 0
-7080 9548 3651 0
1440 1122 3998 0
7285 -3400 8258 0
-1174 8662 -4330 0
1868 -8170 1094 0
3444 5791 -2690 0
-6744 -9060 7032 0
-1018 2857 -6230 0
983 6216 -9459 0
7347 -2002 8737 0
6850 5719 -7899 0
4070 7173 -7762 0
892 128 -27 0
8830 4747 4653 0
-7201 -2535 -2625 0
4863 7837 -5863 0
-6845 -5988 9007 0
7322 7568 -5609 0
3196 -4256 -4433 0
5769 -8065 -4448 0
9536 3969 -5001 0
-2802 5436 5501 0
-6444 -5531 4812 0
5942 7158 2795 0
1281 5099 3470 0
-9987 2783 9228 0
-2414 6661 -7151 0
-1752 5167 169 0
6844 2389 -2777 0
9966 9811 -9868 0
7795 2833 -9037 0
-9110 3587 1436 0
-6745 5488 8145 0
9672 -669 -3907 0
-5475 -6757 -5694 0
4785 -5564 -4576 0
3031 4189 4556 0
-1796 4245 -6632 0
8094 7602 2696 0
3651 -9620 8146 0
-9618 6746 1274 0
6125 -1664 -8080 0
-2818 -7635 7190 0
2033 9516 -7296 0
-8238 -6993 -2503 0
-7590 -6909 -5995 0
9295 -9513 -7073 0
-4315 -3866 3816 0
7899 -764 -4905 0
4881 -4388 2252 0
-4062 -3291 -6886 0
-6348 2073 -8860 0
4990 1203 -2687 0
-5596 -7688 566 0
-1692 150 -7647 0
-2266 5836 2778 0
-9318 -8053 694 0
9907 -7768 9494 0
-3044 9351 6639 0
-8414 -6431 -9191 0
-8532 -9472 9253 0
-142 1179 5435 0
1691 -9928 -3442 0
7395 9556 -1798 0
7292 -1045 -6474 0
1121 4731 2578 0
-4835 9631 4696 0
-8765 -1009 4583 0
418 -9351 -8781 0
7311 -9797 6878 0
-553 9848 7573 0
-7900 6927 -7137 0
-6939 -7111 -9029 0
-1191 9519 1143 0
-9526 -963 -9997 0
8601 4328 -5569 0
-594 -9400 5001 0
5812 4138 -872 0
-8701 9704 -6164 0
-5643 -66 2928 0
-3527 -7168 5584 0
365 7381 -6547 0
2133 -4835 6965 0
1806 -265 -5556 0
-1982 6208 -2109 0
-8019 -6807 528 0
-4404 -5557 1985 0
3281 1353 -789 0
-7809 -2758 -9347 0
-124 9534 3627 0
-6196 7567 2469 0
1454 3678 -9737 0
-4430 6178 65 0
2010 1558 1057 0
-3216 5860 7811 0
4173 -1845 8198 0
9373 9896 -8690 0
5455 -4252 8447 0
3372 -9111 -4637 0
-3361 -8129 4800 0
4528 1135 6527 0
-787 -2013 6781 0
2040 7260 -8155 0
-5393 -2730 -4442 0
1394 8099 -2874 0
6965 -7888 4681 0
2941 -6437 9378 0
7032 -3439 8665 0
-8033 5426 -1249 0
4506 4729 6707 0
-2350 5875 3582 0
-8457 2762 -546 0
8893 -2028 -4739 0
7070 7199 7941 0
787 144 7391 0
3236 -3361 3396 0
-1460 5856 984 0
5801 -9165 1016 0
-1259 -4156 -9368 0
-657 6694 -6172 0
-9193 5185 -6554 0
-9930 -8065 -2208 0
-4979 -5177 1605 0
-2887 -1023 -3001 0
3405 -1928 3747 0
-159 -3327 1775 0
1939 -4040 9989 0
1671 -9543 7592 0
3542 -6345 316 0
-7039 -3820 -3049 0
-1373 8904 1239 0
5672 774 4541 0
-4112 -4513 -7176 0
3153 -172 -6436 0
-9108 2314 5081 0
-4094 -9617 -3506 0
925 8820 -9509 0
-31 345 -1720 0
-8973 -8124 9366 0
9298 -9784 2681 0
-8491 -4826 9281 0
2692 -6669 4993 0
190 -487 -4425 0
-2097 4613 5984 0
-688 -6486 -2044 0
-7818 6417 -186 0
-6962 1043 6391 0
4570 -6100 3240 0
1861 5964 -8318 0
-1090 -8947 2492 0
-3552 -7270 -4601 0
-2225 5878 4373 0
-6729 -8504 3764 0
-6609 -1889 -2709 0
8165 -6843 712 0
-4049 7788 -8962 0
2018 5316 -8272 0
9586 2426 -7455 0
-171 -2881 5875 0
7578 9548 2918 0
-1888 -1594 -3615 0
-809 -5702 5112 0
375 2216 -1931 0
-3734 -8136 8944 0
-7295 2364 -6584 0
-3596 4812 -3230 0
6062 1295 -7111 0
-257 9376 -9072 0
-6210 -1513 -4748 0
4620 -9393 3596 0
-849 5982 9213 0
3540 -9080 5946 0
-6819 -277 2906 0
4301 -1546 4181 0
-1706 -4342 -2804 0
-5991 2809 6547 0
-6383 -1876 8327 0
-3139 9282 8657 0
-7331 -6638 2342 0
9219 683 4263 0
-8489 -3170 7585 0
5995 -9010 9078 0
4790 -3803 9574 0
3619 -673 2172 0
-2011 -4249 7447 0
-304 104 -6863 0
5090 -1341 7354 0
-613 -1955 1501 0
-5865 6917 -5718 0
2437 -3799 7766 0
294 -3082 3447 0
-1141 7330 3395 0
8240 -6611 6341 0
-9630 6366 6033 0
-2480 2470 2242 0
1340 1112 8675 0
-1735 1551 -4773 0
2859 2780 5521 0
3507 -6727 -3808 0
5543 2018 -8572 0
617 -9333 -3795 0
1193 -4952 381 0
2621 -3605 4558 0
8256 -7254 1848 0
-4557 7788 2944 0
559 -5945 9334 0
8997 6851 8987 0
8135 -5727 -8398 0
-7937 4655 9590 0
-8428 7043 -2554 0
8966 -8702 2925 0
6008 9374 -1118 0
-2024 -2860 7514 0
-137 -8946 -226 0
-7293 7502 9781 0
965 8020 8963 0
134 -7895 -3429 0
1565 -2214 145 0
5862 -6581 5051 0
-2289 8935 -2680 0
5504 5719 1805 0
-8312 6464 9438 0
8697 -4192 8781 0
-3854 9490 -1246 0
8536 -2266 -2252 0
5970 2209 1560 0
-4556 -1446 3175 0
9886 7175 3430 0
9011 7696 4304 0
9165 4880 -3101 0
8057 8843 -3737 0
2957 8185 8250 0
913 -3381 -4153 0
-9536 -1922 4766 0
9621 -6991 -243 0
-1330 -4509 5983 0
4482 7511 -1055 0
-745 1029 -4306 0
-2432 1870 7302 0
-6995 5195 940 0
-7980 -3980 -1623 0
-6626 -3491 3850 0
6038 7620 3660 0
-2511 6117 -8979 0
2996 1818 7533 0
1154 4285 -7670 0
337 -3605 1267 0
-9650 9041 -2634 0
314 -133 7928 0
-2908 -7358 -4665 0
-5821 -7477 7472 0
-9873 -7595 -7585 0
7642 -5243 1510 0
-6069 461 -6863 0
2382 -4323 1203 0
4721 5183 3344 0
-7480 -2448 -6903 0
-6677 6932 7674 0
2373 4323 8526 0
-5748 9937 8665 0
-9355 -4103 4834 0
-4756 1553 -7445 0
1526 4880 6635 0
6170 4334 6276 0
3776 2769 -8480 0
6769 972 810 0
-8090 -5888 4202 0
-644 -2606 9055 0
-5281 -2680 -1136 0
-6534 -4374 8887 0
8644 -2764 8933 0
-9954 -9663 4385 0
-3129 -9786 -5984 0
-9228 8479 -5365 0
7529 625 4971 0
8545 9064 -8342 0
-6726 -9949 -6675 0
-2768 -1367 -5300 0
2117 -8499 -7671 0
-4798 4352 -6821 0
-9913 -6210 667 0
3141 -5992 -708 0
-8077 -2745 -9289 0
2284 4500 1224 0
7592 -1781 4878 0
-2642 -4697 6864 0
-2623 -711 -890 0
6809 817 -2630 0
4366 -2189 6553 0
7606 -3768 5435 0
-1621 -5719 5938 0
-1797 -9069 -455 0
1300 -1886 -8704 0
3554 -2033 9952 0
-530 1325 -8410 0
3507 3391 9799 0
8652 6338 2624 0
-4529 -1132 2732 0
3152 1448 -8456 0
-180 639 5611 0
9953 -9316 4707 0
-1471 6022 -5546 0
-1779 -9681 -3597 0
-5698 -9535 1816 0
5853 -5644 1670 0
8507 5025 3718 0
-4957 -5104 6120 0
-1485 -8238 -6488 0
-8633 -9090 7453 0
9590 1155 2532 0
-9654 -8631 -5433 0
5996 6223 -653 0
3868 8689 -4493 0
-4165 1342 2329 0
-6724 -6630 4129 0
7162 -8616 780 0
-7035 -4114 3372 0
-1221 -805 -8615 0
-325 -1541 461 0
-2669 -2339 8845 0
1485 5818 3990 0
5976 261 -5104 0
-4316 5045 -4831 0
8244 -2841 4666 0
-3784 9123 6015 0
-3927 3604 -7689 0
3072 7314 -5030 0
-7044 2233 -8099 0
6574 1828 -2915 0
-3410 9656 -2184 0
2974 6241 6188 0
9121 7767 7943 0
8649 -5088 -9941 0
-6214 43 7270 0
-5751 579 376 0
-7682 -7839 3995 0
-9974 -2623 1325 0
8604 3142 -7642 0
7071 -7774 -5549 0
2877 -4597 -9274 0
-6586 -6825 2954 0
-7044 -4867 -1095 0
3605 2199 -2266 0
-1983 -7705 -9449 0
2494 3031 7467 0
-2116 8175 -5537 0
1101 27 3815 0
7572 7822 -4867 0
9806 3295 2567 0
-5749 4458 647 0
1782 4139 -7477 0
-211 812 6651 0
1542 -7816 5040 0
1670 -514 -1749 0
6886 -9837 8408 0
5698 3979 -6681 0
-5352 5168 4547 0
9762 9325 -5407 0
-9828 -762 -854 0
2420 382 2159 0
3713 -8149 -2976 0
-402 -9720 6350 0
3608 -2130 4748 0
-1835 -2885 -3587 0
-6639 -4059 -7106 0
-9486 -3824 613 0
984 1790 4272 0
4349 -3977 -8142 0
9234 6159 283 0
3449 4343 2672 0
1070 1997 -4708 0
2917 -6265 -8319 0
-3731 2072 844 0
979 -8967 -7916 0
8415 4009 -9829 0
4449 5689 -924 0
727 -3868 3998 0
6175 8628 -5763 0
-1244 8272 -220 0
3033 -2550 -6009 0
-769 2803 4921 0
8600 3632 2450 0
570 4915 6172 0
-5930 8768 -4024 0
2418 -9623 -3719 0
-248 3813 -9089 0
-5578 -771 1545 0
-2453 362 -4612 0
9598 -2626 -9430 0
669 6520 -6857 0
-3222 3788 7773 0
-9414 6487 -5368 0
2796 -9326 7708 0
5235 7961 -9695 0
131 2272 -6060 0
3671 8699 7342 0
9741 -3742 -5870 0
6851 -6189 -3 0
2679 7056 6737 0
-9732 -9223 245 0
-9675 6910 8112 0
-3799 231 -7285 0
1062 -9688 -6854 0
-4885 4317 1787 0
-9498 -3108 3080 0
6896 -3842 -2073 0
5840 8508 9482 0
-8764 -7519 938 0
-1298 6801 5032 0
-2383 -5734 -8236 0
-882 -1742 -8494 0
-3794 -450 3685 0
7927 9276 -5164 0
-7076 -8739 -258 0
6510 -9061 -4128 0
-34 -566 -9737 0
2447 -3943 -6824 0
-4453 4944 -785 0
1715 -6993 47 0
-1154 -319 5146 0
6734 4680 -3584 0
-5778 -8826 -5246 0
6408 -8213 -4158 0
-909 -232 5882 0
8140 -6974 -2839 0
840 -2860 -7233 0
1836 7762 -2748 0
-7445 5277 9304 0
1507 -7634 -9051 0
-7215 1037 -9190 0
-6953 -8448 -2484 0
5169 5385 2589 0
310 -6818 25 0
6229 4550 -7877 0
8874 -1417 1415 0
-2971 -2709 -72 0
911 -4239 3495 0
-2275 -6015 -3419 0
-1670 -9609 204 0
-2761 -541 5399 0
-6428 -7826 -3741 0
4311 1957 -8286 0
6421 3990 7983 0
2978 -2329 2458 0
3512 -7559 -6656 0
-20 -2402 -6415 0
-1627 2497 3923 0
2026 -7185 -9584 0
8341 -7769 -7227 0
-5477 6130 4972 0
-8446 3627 207 0
-5862 -6630 9902 0
-9910 -2199 -3438 0
-9301 -3829 -4173 0
6351 -9505 7845 0
-4167 3717 7328 0
-6685 -831 -3660 0
4007 9962 8233 0
-6752 2602 8103 0
-4752 4607 -5700 0
7806 8354 -9892 0
-3874 5606 -6466 0
-4465 3263 -3290 0
-6067 -3624 -373 0
-6706 -3026 1132 0
5964 -6015 -8696 0
-1946 -2152 8412 0
-8044 1678 -5691 0
8406 -1860 -5575 0
7466 7998 -9514 0
-5281 3606 -5575 0
5993 8051 -4628 0
7991 302 -5153 0
-1315 6933 8985 0
-6048 -9977 1122 0
-309 -2484 2325 0
-5678 -1983 6746 0
-236 3068 7478 0
-4105 1394 -9882 0
753 6426 -9288 0
-2704 5146 -1808 0
1966 -9554 2821 0
8458 9365 558 0
-4519 4270 -819 0
8675 -5561 5619 0
1231 3823 -511 0
-8886 8547 -6759 0
7310 4226 -1498 0
-1479 -3144 2852 0
5867 20 2137 0
1543 -5871 9227 0
1359 5619 -1991 0
-929 -940 7942 0
3702 -2694 -4923 0
-8630 5365 6683 0
1786 8111 -3820 0
-9896 -1265 4498 0
6812 -8979 5396 0
7715 8890 -8957 0
9783 -2264 -9098 0
-1190 9778 8961 0
-2586 4736 7945 0
-9060 -9562 8585 0
8593 -9493 8830 0
9809 -3279 5382 0
8564 -2271 -6889 0
-9349 -4055 7605 0
-9496 -688 7600 0
4518 8139 1919 0
497 4196 -3304 0
-5089 8627 -2648 0
-3751 100 9603 0
-9853 -1666 -9638 0
-948 -6746 7003 0
4037 8211 8316 0
246 -9568 -885 0
-7391 8334 2201 0
-9089 881 9208 0
4293 -8230 -9813 0
-7560 -3908 -7600 0
-1920 -2156 -3432 0
4434 480 -6151 0
7905 -296 7522 0
-2804 1857 -7050 0
9349 1890 4084 0
-3880 7958 568 0
349 7870 -389 0
8000 3169 -9291 0
-1676 -4721 6406 0
7553 -3995 2565 0
2794 -1732 693 0
-9545 908 9822 0
2413 -6317 -3268 0
7493 -9568 -1129 0
-5370 -7931 14 0
875 9561 2123 0
-105 -2885 -4466 0
-2932 5142 -8249 0
9692 -4987 318 0
403 4241 1328 0
-421 3381 3159 0
-9475 5375 1458 0
2860 6606 7857 0
2756 -5233 1029 0
9497 -1887 -5058 0
9560 5047 -6871 0
2507 -3805 1988 0
-28 -4613 -8237 0
503 -8428 1285 0
8031 5361 -3365 0
-1896 9925 -9688 0
-3112 -4673 5324 0
-2204 5123 -5888 0
-5423 -8882 -9912 0
-1719 -5336 6669 0
9401 -8299 4651 0
6996 8991 5315 0
-6923 9297 8297 0
-1134 -7796 7276 0
-9573 -2703 -9446 0
-988 5097 -5539 0
-7177 2524 -1416 0
6326 -3483 7637 0
-741 5317 -4209 0
-1331 -3662 2185 0
-8690 1485 4595 0
4040 3050 -6285 0
3877 -9554 2474 0
2880 -6377 8713 0
-8627 -7355 1197 0
6041 -6335 -9419 0
-8887 2894 5379 0
5622 103 5777 0
649 -6517 -1023 0
9753 -1162 284 0
7735 -2316 -5184 0
-5762 6528 1055 0
6170 1420 -6695 0
-2545 -9630 -2611 0
-1440 4638 -8662 0
-4672 -2715 -2164 0
2602 -3976 5490 0
-3955 498 -9621 0
8338 9119 5811 0
3621 -2029 -4218 0
6307 641 4071 0
5428 -1238 -8238 0
4083 3326 2371 0
1667 7691 4699 0
-5451 -5449 9339 0
1182 2364 -2624 0
-8053 4628 -2262 0
-7497 4690 -6648 0
-4338 5566 9750 0
6971 -7437 -4279 0
-4293 -903 -9650 0
210 -6114 5331 0
6997 -7194 -5203 0
-3271 6838 -208 0
-2705 -2093 2051 0
1130 3122 -6036 0
8458 -2141 5410 0
-1656 -6649 9169 0
4880 118 -9603 0
4482 7216 -746 0
925 -1322 5151 0
8017 -268 8175 0
5065 7529 -851 0
-225 -6238 9580 0
-4792 -6358 -7719 0
7915 -4197 -1824 0
-9759 -3984 9888 0
4249 6889 6768 0
8180 -70 -4810 0
550 -7960 9772 0
-610 -6693 4107 0
-9799 -5488 -3468 0
-2030 -6998 8784 0
135 -6824 -6060 0
7118 943 4466 0
-62 3013 1691 0
4381 -4818 -2621 0
6022 4846 674 0
-8135 8171 8646 0
-8036 6688 -1928 0
-7284 -5142 -2292 0
169 -7212 -1861 0
8078 1857 -490 0
4284 -4551 -939 0
-498 2039 -9738 0
5335 -981 -3323 0
5369 3061 -9363 0
8563 -3455 -1527 0
2649 7405 -3020 0
5525 -6461 -8284 0
7648 7525 -452 0
4756 7204 -9451 0
9161 -7181 -9711 0
-7611 9362 -8150 0
1715 -445 -9665 0
6242 -7602 -3148 0
9914 -7742 -1918 0
6059 4600 -6518 0
-5437 8580 -6176 0
7895 5781 1039 0
4132 -572 1552 0
438 3246 -7109 0
6671 5882 -833 0
-2379 -7913 4315 0
-684 7971 8338 0
-4839 2712 8590 0
-4091 1225 4100 0
-9541 -1768 8080 0
-1263 5572 -4460 0
2735 854 7379 0
4104 2823 -1881 0
-1986 -7108 -453 0
6813 2783 1602 0
-8787 -6228 4731 0
-9150 -7884 -5905 0
5945 -4850 -3737 0
1854 5253 3282 0
1793 -9558 -8243 0
-1207 -487 -4934 0
-3634 -9313 8020 0
-5596 -3432 5976 0
6618 3102 6680 0
8298 -3391 2453 0
1260 -116 7307 0
-3289 -3684 -4800 0
-5466 -1955 -9709 0
-5559 9024 -1148 0
-1024 5306 2575 0
-1366 -9012 4861 0
-2198 -4349 -3325 0
7823 -2850 9785 0
5985 -9125 -1134 0
9283 -2268 -6232 0
-7134 -7667 3132 0
-279 -8133 -6867 0
-5992 -3157 1683 0
2528 9716 5075 0
6847 3483 7279 0
2132 -3816 -3435 0
102 -8950 -7455 0
-6900 1717 1873 0
370 4766 -9129 0
-317 2928 -8903 0
-4184 9500 765 0
2107 -6143 1726 0
-8432 8928 2026 0
-4000 -799 -8627 0
-2745 8227 -1931 0
-2372 -6345 -2872 0
-6290 -957 -4769 0
-7410 -4981 7382 0
-5017 -8632 6332 0
4163 -7202 6241 0
-5489 680 2872 0
4311 -3632 5664 0
264 7445 9691 0
-8557 -4250 9245 0
4218 -7207 -6734 0
217 -7298 -698 0
-5160 -8787 9297 0
6944 6164 1106 0
9445 -7622 -9144 0
-1506 -3707 5805 0
-5825 -6501 2313 0
3977 -5067 1639 0
-6814 1065 1572 0
-1558 6690 -1675 0
-8686 -795 3994 0
7555 -1390 4561 0
-4289 -323 -2282 0
-8237 2159 -4297 0
5908 3342 3509 0
-9277 -2775 -5975 0
4597 -9413 8494 0
-7518 3439 -2323 0
4383 7665 1687 0
1450 -5254 -5562 0
6667 -4953 -3370 0
153 4775 9179 0
-4891 -1239 -1996 0
-6006 -57 2091 0
-6247 4617 9014 0
5425 1254 -3826 0
8272 -7326 876 0
9877 -6598 8018 0
-6020 -9882 -8659 0
-6206 -7020 2027 0
9792 -4119 -4662 0
6929 6174 -6904 0
7588 -4119 1054 0
1296 -7755 -8890 0
5466 4707 -2722 0
5889 7127 -4756 0
5099 3445 -321 0
4525 696 -4616 0
-3834 2324 3196 0
4082 -162 6409 0
-7334 -8372 3688 0
4810 -5024 5516 0
-7867 -7422 1223 0
693 -4832 364 0
-7345 3199 6038 0
-8749 -4801 -7348 0
-3993 2954 5459 0
1208 -3792 -9635 0
-1490 -5728 -7367 0
222 1689 -1062 0
-9341 9307 -4056 0
1836 2876 6866 0
-6038 9329 2074 0
-3495 1453 7770 0
8122 -3548 6820 0
3215 -3739 3027 0
8446 -7875 2529 0
8786 7167 -8922 0
-2794 -680 6463 0
3627 9494 -9048 0
-9461 7913 -7601 0
6971 -6989 1149 0
7025 2162 -6739 0
1835 3278 5690 0
3870 -5731 -1428 0
2068 -278 7814 0
241 -8380 -9605 0
1734 -3959 -2261 0
-1487 -7779 -6414 0
-7343 6977 -4353 0
7912 -1654 -6442 0
-3649 -1695 3385 0
-359 2314 8071 0
-1354 532 -857 0
7369 3131 -8480 0
6559 -9663 -2906 0
5931 -4544 9681 0
3236 -9078 3715 0
6348 6034 2009 0
9232 -6334 3294 0
-7303 9578 8724 0
2626 8243 6 0
-2279 2217 8850 0
6742 1021 -814 0
-8366 -7133 3650 0
120 5345 7105 0
743 -817 7406 0
-9798 154 778 0
-1035 -3026 -7871 0
-670 4716 -5106 0
7854 -5160 3892 0
-2203 1750 -6035 0
6330 -7086 -3608 0
-8233 2089 2608 0
2804 -3663 7229 0
4728 -2459 3188 0
-7587 -8455 4833 0
1969 7254 -1127 0
2945 5211 5236 0
-3571 4114 -3081 0
-1027 4794 7485 0
-6426 583 -7692 0
-5082 136 4008 0
-4869 -1053 -1037 0
-5161 6268 9953 0
532 1169 9498 0
6504 -662 6166 0
6984 -4528 2284 0
-4669 -8256 -3426 0
4929 4757 2261 0
2119 1040 3815 0
-630 9019 5772 0
-7189 -3836 8993 0
6882 464 -2687 0
3854 -2321 -6610 0
-1640 3003 -8671 0
7993 -2536 -8888 0
-5679 -7372 -7782 0
-9906 -8965 -8278 0
8285 7196 3794 0
-2645 9330 1807 0
-5770 770 5811 0
-4293 -4860 5281 0
-9191 -9918 3210 0
3524 2379 6881 0
9746 2713 5018 0
-384 5285 -6386 0
7114 -7282 -9874 0
1805 -4459 -7948 0
3628 1019 7157 0
-8410 3207 -2892 0
298 -860 -1865 0
7657 -2647 -6168 0
-6621 767 5524 0
-4600 -2101 -2569 0
3346 -3441 -8592 0
211 -2526 8801 0
8349 -8864 -7423 0
-913 -7337 9476 0
-7119 -2871 -5576 0
759 4076 -1100 0
-9387 -1089 -4690 0
-8145 -5187 -7375 0
-7523 8198 -4616 0
1244 3316 2295 0
-9001 -8059 2347 0
7053 -4514 -4821 0
7382 8873 -9699 0
6682 3963 7832 0
679 -4286 -6755 0
-3633 6686 2165 0
-8024 -6271 -2389 0
6271 -740 -129 0
-1475 5739 8851 0
964 645 2277 0
4593 2690 5960 0
-8883 5277 2878 0
-7103 1247 4901 0
217 8697 4981 0
-7361 5332 3056 0
1283 -4734 -9409 0
4428 952 -2158 0
3081 -5398 -8998 0
7041 1970 1121 0
1547 4214 2338 0
5979 95 7182 0
1345 2062 -2524 0
5024 7836 3765 0
9530 1149 -7733 0
3828 -2695 -7921 0
8258 8107 -5607 0
-2040 -1236 -188 0
-1712 -4622 -9981 0
-168 -8047 1096 0
-8529 9582 55 0
5677 4909 8999 0
7308 -4234 -7660 0
-4796 631 -5842 0
195 -7718 4549 0
6092 -891 8530 0
3385 -1608 4790 0
1006 7755 -2543 0
-2785 4660 -997 0
5761 7263 5113 0
7838 9814 -2971 0
-597 -4974 61 0
-1357 9151 1820 0
2151 -3486 -9667 0
669 -996 -8993 0
-4529 -9372 6537 0
-3903 3823 826 0
6122 2387 -7385 0
-2520 -1611 -842 0
-513 1622 -6083 0
4878 7266 -1591 0
6383 -1872 -1003 0
4390 2227 9221 0
8154 4259 2994 0
-2037 -4470 -3251 0
6199 2819 5214 0
-8445 2856 -4543 0
-4508 -2030 8718 0
-3883 -322 -1360 0
-6692 -3810 -5941 0
-3701 -5734 -4281 0
-6753 -4223 -1162 0
-2032 3466 -94 0
3485 442 -7631 0
473 -9158 -134 0
6105 -5176 9117 0
-5761 2076 1513 0
5340 3586 5872 0
8171 -2397 7967 0
-3236 1032 4592 0
-2451 9937 -9722 0
-2826 -4048 -9092 0
9651 -683 -8798 0
6162 -2110 -6537 0
-3537 4000 -8515 0
-4658 -1714 9207 0
-4728 -7351 -969 0
-7983 -681 -8064 0
-9136 5421 -3327 0
-8177 3610 -8511 0
8801 -1508 -6541 0
-5188 -8719 -408 0
9685 5606 -4147 0
-9106 9581 -5996 0
-6413 7059 6679 0
5069 3831 426 0
3990 472 -5874 0
-1490 9073 2203 0
1638 8196 4068 0
9189 -4541 -6089 0
-3971 8564 7420 0
9566 -2215 1262 0
-2993 -6699 -4252 0
-573 -4599 -3069 0
-8891 9126 8591 0
6942 -690 3782 0
2134 1884 3930 0
-3172 -9412 -9442 0
-5536 846 9121 0
-6173 -3053 7938 0
3157 515 3592 0
7556 4854 1364 0
5987 543 7068 0
-8292 8750 -223 0
2730 -5230 1499 0
343 -275 3624 0
-7057 -5834 -326 0
-1559 -3579 -3585 0
2616 -2408 -4158 0
-202 -3945 7860 0
4062 -1211 -866 0
-8824 7742 -477 0
-6324 -2197 9440 0
-9875 -3429 -6235 0
3059 477 -8922 0
-383 3676 9376 0
7589 -378 -7432 0
-5061 6933 5335 0
6592 7357 -3654 0
7014 1879 -2257 0
-7849 -2980 -6513 0
7080 398 -4559 0
-7465 4256 -5588 0
-8238 8672 -9719 0
3284 833 6622 0
540 -2836 5686 0
-2469 6587 7090 0
-6487 4489 3605 0
-9309 -481 1892 0
-5319 2412 -4157 0
-7621 -8441 -4250 0
-8726 2506 2514 0
-950 5690 9508 0
-4775 -4378 -7072 0
1793 -3774 7873 0
-3571 8172 413 0
-4037 3597 -3045 0
2023 -6921 -5339 0
-7412 4123 4948 0
4874 -1183 -728 0
-7600 7639 -7372 0
-9933 65 -2400 0
-3804 5216 -922 0
3732 234 -46 0
-7398 -1455 6291 0
9285 -2092 -5767 0
-818 3646 -5342 0
9084 2235 7885 0
-4670 -2379 -1619 0
5285 2457 3092 0
9286 2410 -9178 0
7183 -3255 -2511 0
6544 -4449 -5543 0
8228 3002 -3216 0
-5758 -8654 6608 0
-4444 -6274 -7751 0
4853 -7015 9402 0
5331 9325 3934 0
-3098 3003 3804 0
-3799 7691 -2380 0
9009 7815 -4968 0
8416 -7826 1726 0
4876 -4542 7346 0
-5924 9391 -4830 0
-2816 -4821 -9538 0
-3447 4645 4551 0
7134 3427 6291 0
-8454 -1533 7103 0
7001 8192 5903 0
7506 -7299 -6448 0
-7436 -3056 -8814 0
4062 1286 -6171 0
-2280 -9349 -8982 0
217 -4484 -2599 0
-1654 -6467 3716 0
1628 8620 6170 0
9970 4669 -7243 0
927 6086 -8478 0
3203 8009 7997 0
9198 16 -2349 0
-4963 -2631 -2649 0
5168 3140 407 0
9815 7252 -5135 0
-6936 -8006 -1906 0
7132 -9184 3950 0
-6415 6442 7753 0
-7839 234 52 0
-3542 8258 -5502 0
-5726 -6148 6304 0
-5279 -1420 1540 0
5026 -5227 2415 0
2651 8446 2303 0
-3195 -258 5790 0
1438 -2038 -7671 0
-9937 -8361 1224 0
457 -5622 -2595 0
-6769 5629 6001 0
-4014 -8912 -5578 0
-4845 4340 5566 0
6180 -3398 -834 0
302 -662 5255 0
1087 -7046 -284 0
-8701 -3348 9762 0
-9633 210 4449 0
1924 3443 6329 0
-3745 -7463 -876 0
-6234 -210 5492 0
8652 8304 4823 0
4360 6103 -4443 0
4632 -3536 -8150 0
-2322 600 6693 0
135 3419 -8079 0
-4485 -9748 -8574 0
5011 -2461 7789 0
226 8785 7940 0
7297 5601 9339 0
-4534 4697 -3845 0
-8409 -7248 -8889 0
5814 -4054 -1993 0
7292 -7298 -999 0
2775 7921 1785 0
-5614 -8419 -7383 0
8260 -2926 -9577 0
-3308 -5304 8553 0
9021 1040 -7594 0
-4573 -9381 -4081 0
-8500 -9514 -1162 0
-2623 2850 -2315 0
-9682 9548 2714 0
1708 1125 4957 0
-3003 1803 -6284 0
2717 -8643 -9840 0
1127 -12 9094 0
5220 4362 -5885 0
-1778 8672 6137 0
4448 3822 -2379 0
9188 2774 -1318 0
-8763 7544 -9714 0
-3844 9654 4419 0
1957 672 -7422 0
-1175 -3359 -6568 0
-1018 -5571 -9941 0
6435 4267 2161 0
-3850 -4878 -6123 0
9259 -8523 8901 0
8529 9558 -7195 0
-1496 8388 -7404 0
-8498 -5538 -5209 0
8787 -5218 2331 0
-8717 8473 654 0
2975 -7830 -840 0
8788 9922 -7434 0
-7627 8569 -4887 0
-145 -9272 3816 0
-6546 -7734 2961 0
-5250 5441 -7531 0
-2943 5851 -9276 0
137 -802 -4836 0
725 4235 -1625 0
-9858 6444 5940 0
-3160 -7749 929 0
-7728 3629 -7837 0
-8683 -4221 -60 0
-6147 2385 9812 0
-3209 -8322 5211 0
-2701 528 5722 0
893 5555 -3432 0
-1569 5555 4732 0
-7742 -2208 -5904 0
3208 252 5400 0
-6298 719 -7855 0
-7300 2057 5274 0
6549 100 -3935 0
8238 6636 -7904 0
-3419 3897 -2243 0
1109 -2794 3937 0
5712 8032 -1039 0
8164 7780 -6527 0
-1378 -7270 -536 0
6621 -8119 4337 0
3127 1980 -6218 0
2446 -4472 4330 0
-9853 3913 -754 0
-6683 -4527 -9257 0
4381 987 -2250 0
-9854 8106 2937 0
9511 2806 9106 0
4889 -7205 -3108 0
-9596 3550 -6242 0
-1186 832 -4142 0
-4581 3062 7418 0
-3504 7835 1357 0
2832 9340 6776 0
-1396 -3343 5317 0
439 -471 3219 0
5407 3251 3168 0
3583 -8827 -3542 0
1590 5903 9482 0
8185 5500 -9839 0
-8428 2903 -3066 0
3940 -6197 4176 0
5265 -4603 -8461 0
-4478 9488 6571 0
999 5026 -7953 0
8225 -2045 -9081 0
3244 5718 4459 0
-9723 -9494 -6065 0
8161 3285 9093 0
-6786 1033 -2513 0
-6454 -1654 -490 0
-2511 -4278 -4472 0
-4641 -3103 3244 0
888 6237 -9449 0
8096 5159 2899 0
-1590 4439 -635 0
-5982 9998 -3883 0
7503 568 -3575 0
-4607 9158 7036 0
-8822 -5461 -7667 0
5483 -1453 9469 0
6605 -7618 -4914 0
1510 5331 9514 0
2746 3775 2884 0
-2802 -7211 -3694 0
-1640 -1852 8573 0
7023 -2328 3228 0
463 -1994 4162 0
-4734 6224 8751 0
5617 -4320 -3450 0
-9433 6065 -1136 0
9357 -6273 -9202 0
1073 6850 -2512 0
-6767 5528 -9826 0
-7046 -1606 -8930 0
-4129 -2553 8641 0
-6901 4892 -1778 0
6320 -2674 5639 0
-8929 -7108 3917 0
9019 -7092 8010 0
9406 -3528 1668 0
7284 904 2242 0
4084 4166 -3359 0
-4416 7856 7815 0
-6793 1628 4243 0
9252 8309 9933 0
7555 4540 -4419 0
9828 4271 306 0
-8587 -14 8429 0
9893 -9309 9165 0
2092 -5684 5739 0
-1898 6896 -2293 0
-968 574 5881 0
-5412 4359 -966 0
-6457 5244 -2642 0
-1037 1745 3356 0
-8940 -3276 483 0
-8481 -1059 2538 0
-5994 4929 -1696 0
4866 6419 -9229 0
2134 -1308 4070 0
-4635 -6308 1510 0
-3480 4804 -3754 0
5814 -47 2541 0
-5815 9306 2961 0
5039 430 749 0
1325 135 -5579 0
2284 1245 3822 0
-6995 5071 -785 0
3785 -231 518 0
-4103 3704 2882 0
9537 -6737 2 0
-3118 3336 -923 0
8882 4518 -8495 0
-5067 -5709 -8455 0
2609 -1463 -8793 0
6508 -6173 9544 0
-8947 4365 8184 0
8976 1427 -9864 0
2292 5497 4838 0
-3767 2188 -7422 0
196 9408 -295 0
-7482 -8300 2603 0
-8871 -2123 -2809 0
3410 -7906 3388 0
8050 -2382 9035 0
8228 4785 -9021 0
6139 -8713 -3208 0
9100 -6870 1853 0
500 3265 -4088 0
3642 9615 -773 0
-1261 2971 4062 0
-6196 8777 -6151 0
6813 -7529 4552 0
4555 9408 7947 0
3610 -7257 -8254 0
7896 4902 8065 0
-732 2072 1820 0
4277 2774 -3144 0
1702 -6071 2994 0
8824 -7919 6611 0
-8041 7557 -6641 0
-1376 -7302 733 0
-1609 -5878 8881 0
-7095 -5928 7788 0
-1095 1312 -6641 0
-6887 -6838 1471 0
7746 6364 -1111 0
-5265 -1239 3216 0
-8446 -9471 -8348 0
-397 4392 8685 0
-9784 -1075 4618 0
8677 4097 -4417 0
-6927 547 404 0
4687 -4231 643 0
-8765 1762 -2221 0
7485 2756 -7711 0
4971 9511 -3508 0
802 -7970 1783 0
-9735 5208 487 0
-9979 -2759 -1613 0
-7082 4620 3264 0
-4816 -4376 4512 0
-9483 9390 3891 0
-1052 -3449 9700 0
2819 -2038 168 0
-4325 3994 7409 0
-4799 9865 8471 0
5855 -106 -6929 0
7646 -2528 -5671 0
-4123 6122 -6205 0
-3814 -467 -2514 0
-2719 -1217 6821 0
6214 8155 878 0
8574 -6821 5018 0
-5698 -7701 6073 0
875 -1102 8558 0
9020 8156 2954 0
-9650 7309 -4091 0
4756 9947 517 0
5671 -3122 9471 0
-2287 -1909 4296 0
5768 -6161 4883 0
674 -8327 4707 0
1143 7781 1190 0
1535 2014 6679 0
-4886 -2457 3335 0
-7663 -8075 -9258 0
9274 -8053 -2331 0
98 9646 4031 0
-9545 -8031 -6849 0
9041 8835 5908 0
8658 -2476 -974 0
8030 4600 4561 0
3702 6160 -4792 0
-4394 7640 -574 0
2903 1057 7761 0
9759 1910 -4592 0
7099 -9578 9222 0
9456 460 -3048 0
267 6691 -1185 0
5152 5149 2600 0
697 354 -5218 0
1941 513 -2120 0
-1706 -574 -4865 0
7368 -1370 6980 0
-9335 -3974 5679 0
-263 6136 5432 0
-6555 -4306 6845 0
6491 9089 8416 0
6050 5709 9986 0
-336 7365 760 0
5860 -7862 -5768 0
-9872 -1971 -5438 0
-8216 2873 -9751 0
-9149 5528 1364 0
2862 8393 -9557 0
680 -9874 -9648 0
-2386 -7503 -5865 0
2022 6928 5846 0
1497 4791 6035 0
4635 95 -1141 0
-1662 -4105 3271 0
8668 9251 -2486 0
5431 8392 -2760 0
-67 -7283 -1222 0
-4217 -5780 -646 0
-8440 -6520 7121 0
-4372 5237 1694 0
8126 -1164 -2053 0
-9082 -6122 -5986 0
-4908 -7210 3900 0
500 4101 -5174 0
-3262 -6304 -9188 0
4174 6942 7428 0
-8930 9696 7358 0
6059 -9688 914 0
-7643 -9719 -5824 0
4052 8751 -7557 0
-3224 6396 3588 0
5878 5372 1611 0
1569 1947 -5015 0
4817 6882 6939 0
-4986 -2744 8853 0
6407 7483 -777 0
-8851 3820 2896 0
-7768 6657 8331 0
8514 144 4631 0
2800 8438 982 0
-5626 411 2931 0
3261 -7181 -7335 0
-5350 -5424 4513 0
-4830 -8551 3653 0
207 -6025 -9805 0
8511 -708 8796 0
5382 1855 -8134 0
-2040 -409 -330 0
7393 7132 -5224 0
-6233 -9221 -3011 0
-2596 -5232 7205 0
-3011 2252 931 0
-2647 9457 3165 0
2170 -1003 329 0
-7069 -8886 -6478 0
5310 8714 -7765 0
6900 7982 -9187 0
5251 9203 3031 0
-5744 -7834 -3556 0
-7638 -4107 -4819 0
-4958 2869 -8378 0
-98 -2174 6912 0
-5241 -7538 4844 0
5522 -5125 -7998 0
5813 6642 -3550 0
-2286 2098 -9195 0
5822 -3612 -5204 0
-7133 -5314 -9106 0
4952 1877 -8895 0
-2462 6289 1342 0
7907 -8228 6853 0
5234 -5970 6987 0
7870 941 -4 0
-4173 -113 -8521 0
-6364 2972 -8036 0
1384 -6392 -3733 0
4700 4462 4910 0
456 4852 8384 0
-4416 3099 1475 0
-7434 4004 4206 0
-1983 3910 9301 0
208 -9066 -7214 0
-3280 1797 -8693 0
-6398 -2200 9489 0
3070 -6465 -4216 0
-4626 1042 3079 0
-6088 7567 -8438 0
-2344 6729 4107 0
2747 -7814 2051 0
-8960 9854 7440 0
2047 -5097 -588 0
-6366 -4360 7509 0
8531 1116 1188 0
-2639 8312 6236 0
4559 1425 1935 0
-42 -7443 -3506 0
-1490 -8715 -2394 0
-5322 5918 193 0
2295 -6617 1867 0
-199 8732 2060 0
-3225 6304 -999 0
5128 -9528 2722 0
9484 3173 2039 0
-3440 -5249 -675 0
7708 -4466 1094 0
-3423 3616 -680 0
-6110 7039 -9623 0
1766 -142 -2419 0
8617 -2681 -6599 0
7291 -3542 4293 0
2237 137 -3450 0
3618 -9230 -4484 0
-6166 -1566 286 0
-2275 3915 -2280 0
-9728 -4291 7012 0
6404 7586 -3657 0
5239 1084 -2327 0
-5437 -1391 -672 0
4745 -9148 -8857 0
6017 5941 3235 0
118 -4292 -2547 0
-4659 -6343 -2769 0
3973 -3422 1972 0
-215 -3907 -510 0
-7169 8242 -1307 0
-3443 -2388 840 0
-1492 8256 -5916 0
1023 962 1084 0
-5026 1712 3248 0
6175 2604 -9108 0
3029 7153 8724 0
6076 -9324 -6391 0
9539 2063 6576 0
7168 5972 5034 0
9017 2963 -2716 0
9978 410 313 0
-9179 -8049 8423 0
-3309 6240 -8480 0
-3266 -7070 220 0
-5893 -6005 -1037 0
9283 -4876 1403 0
-4589 6820 -8920 0
-620 -695 5049 0
9239 -1971 -6175 0
-2354 -9743 4674 0
-63 -8553 -5895 0
4746 3668 3025 0
-1476 -6105 2217 0
365 3234 -5254 0
6472 6471 2576 0
-4638 -8737 -3953 0
-1791 3547 9137 0
5978 9388 -9704 0
3114 -8700 -8691 0
-8225 8337 1963 0
-5411 -3211 5055 0
7935 -1156 -7678 0
294 8927 6192 0
6134 -2441 7296 0
-5008 -3502 9501 0
2624 4648 -5707 0
-1737 7873 885 0
-728 -3822 1564 0
-4310 -1210 5268 0
-6987 -9317 8390 0
-468 -1613 -1514 0
-4295 -1736 5084 0
-53 1159 9017 0
-1774 -4966 -2024 0
-6022 6926 -8786 0
3208 9385 -2885 0
9586 6010 -3249 0
2240 -3764 -4542 0
-4754 -6940 -1954 0
4150 2174 -2350 0
7705 -3128 -3300 0
5494 -4448 -5254 0
-198 8625 8185 0
-2813 -1622 9304 0
-802 -7294 -6128 0
9832 6310 8385 0
6395 8136 -3766 0
9504 -3391 1060 0
-2116 7174 -7355 0
-5740 -492 -573 0
-6244 -1198 7634 0
-373 -8810 8514 0
6195 -6115 1481 0
3888 2330 -988 0
-7198 -5852 7967 0
-3362 3247 -1624 0
-5247 -126 -9760 0
2808 1039 -7393 0
-2630 -8954 -9250 0
-4868 -5062 -4827 0
-1075 849 8105 0
-5451 -186 -8443 0
-486 2475 -125 0
-5730 -6508 819 0
4168 -6309 6693 0
-7553 8662 -8324 0
8876 -2306 -1797 0
-4407 7436 -4949 0
-4849 -5581 -6653 0
2247 -7654 7387 0
-902 594 -4887 0
-4408 -3142 5446 0
6563 -7515 -2728 0
214 -2556 6274 0
8515 -5360 -1765 0
5424 7349 1762 0
-4602 5893 -8533 0
2600 -1786 -5897 0
5120 6931 7366 0
-8374 -6521 -2703 0
8727 -52 3998 0
-1510 9197 3662 0
-862 -3443 2519 0
3128 2312 4121 0
-7482 -352 -9127 0
-1183 -6129 -2083 0
-2905 -66 -3142 0
-830 1886 -9721 0
8381 7471 2001 0
5623 7580 8921 0
3647 -5936 8183 0
-1821 -9762 -709 0
-4585 -4989 -9207 0
5381 -908 -9404 0
-6113 -5942 9577 0
-7489 -8124 -9871 0
2043 5892 -4599 0
2637 -2538 4381 0
-391 -6010 -8006 0
-5073 -9559 594 0
5745 9978 -7778 0
-1555 -22 3901 0
-1837 4304 -5108 0
9339 6278 -4240 0
3814 -6750 9114 0
-7090 7279 -1138 0
-2548 -6082 -9525 0
-4156 6381 -2460 0
8935 29 4310 0
-3323 -7321 2824 0
1958 -6445 -3169 0
-9055 -4810 -1660 0
4696 4236 6558 0
3093 -8505 -3635 0
6630 5800 1519 0
4151 -8543 -3000 0
8554 393 5238 0
6551 7739 9642 0
6024 -8083 -9779 0
7413 -9786 -4697 0
-6112 -9651 6336 0
-3464 -2711 -1405 0
-9370 4120 -2010 0
6953 7532 4746 0
5132 5837 -2832 0
-8849 3585 4942 0
-9976 -7529 5078 0
-1851 -8296 -2892 0
-2889 1167 -4437 0
2830 2005 5516 0
-3036 -1373 227 0
645 8095 -1714 0
-1397 -8649 5194 0
9218 -363 -267 0
3794 6704 -4476 0
-7739 -7569 8324 0
-1146 8439 -8583 0
-8082 -6737 -1294 0
-6705 6397 -507 0
-2379 8889 1537 0
-7134 5974 3442 0
-2660 4186 4451 0
5470 5948 -6792 0
357 1524 5698 0
-5530 6199 -2221 0
9224 -9911 967 0
6689 5881 -2623 0
2236 2087 -568 0
3749 -2817 -4856 0
4957 -2448 1494 0
-1709 1650 1181 0
-4665 9709 4728 0
6898 4345 -2832 0
334 5979 7018 0
-2401 4413 -7453 0
-5504 8329 4674 0
-2668 -5769 468 0
-1132 7123 -9302 0
1529 -9898 -7279 0
-7020 6444 4449 0
-898 -9414 139 0
-7449 9489 -7229 0
-6131 -5114 -2828 0
3569 4122 -3682 0
-3201 6784 -9919 0
1758 -3906 7469 0
-1156 -6314 -3676 0
-8615 6179 5255 0
-1195 5409 -7819 0
-3853 3492 -9360 0
-2890 -8109 8884 0
9472 9323 -6212 0
3227 -6814 -4394 0
2799 4209 -8381 0
-5607 -2325 -6147 0
2375 4868 3272 0
9440 -7636 -1241 0
-396 1792 8565 0
-772 -3548 9737 0
4069 456 -692 0
8491 247 5735 0
-1266 -9378 6251 0
-9382 -6895 -3463 0
-734 -7223 1436 0
-5684 -6146 1553 0
7299 4989 7286 0
-7377 2094 4790 0
6653 8860 5091 0
1287 -8716 4046 0
7741 -6609 -7229 0
-1535 -8658 -9336 0
9834 -6131 -1920 0
8364 -6986 9107 0
-1946 9883 -4812 0
9240 7518 8919 0
-8134 -9858 -8304 0
5683 -812 3132 0
-470 2960 -1117 0
-5066 9711 2762 0
-1641 602 -7024 0
8857 4374 -2352 0
-1743 -8205 -3493 0
-4797 815 -5272 0
7559 -5164 2633 0
-3364 419 -5934 0
-5520 169 -2494 0
-3534 -4230 5117 0
-4067 4043 -5562 0
-556 6317 2752 0
7945 9156 -9334 0
4234 3166 1393 0
3804 -4194 -4538 0
-5627 4765 3733 0
1865 -5024 98 0
-5264 9465 -652 0
5156 -3146 1881 0
9959 9630 7167 0
202 5464 6397 0
6279 -6283 -3730 0
9961 3577 -834 0
-772 998 -5025 0
493 -7995 7882 0
-4528 5328 6451 0
8767 -5657 2873 0
-5891 4714 257 0
-640 9643 -8365 0
3925 3138 8608 0
-8209 1876 -6246 0
-6539 -8271 1568 0
-4913 3316 5705 0
1355 -4026 -459 0
9184 4762 6323 0
8951 -536 -1134 0
-5780 -681 7851 0
-489 -1880 -4163 0
4318 2500 2895 0
5426 -6300 5953 0
568 7877 6985 0
-7061 9958 3225 0
-7112 8994 864 0
-966 7848 662 0
-4047 -5620 1206 0
-4154 6886 3439 0
9397 -3859 3231 0
-6245 3102 -3805 0
-1207 3551 1715 0
-6991 -3641 -2022 0
5315 -7245 3681 0
3544 7687 9805 0
-8659 -5153 -6908 0
6473 7905 3339 0
4977 569 -1189 0
-9460 8160 -3393 0
4553 4467 -195 0
5142 4572 -8077 0
5748 5608 -1813 0
-4022 5677 -439 0
4301 -8527 6081 0
562 -6339 1253 0
4571 6784 -8464 0
-852 -3057 -2782 0
1589 -8385 -6034 0
-3936 8778 9548 0
1838 6794 -8255 0
-8384 4984 -2361 0
-3743 -6291 -2846 0
-6835 3286 1599 0
5805 -8229 -7685 0
-7180 -8603 8900 0
7278 5453 9655 0
-1145 2827 5972 0
8733 -4443 -5873 0
-8551 3989 5364 0
3982 9937 830 0
7602 -6281 -581 0
-1156 7878 -5087 0
-9779 -9411 9939 0
9160 5865 7867 0
-560 1458 -5762 0
8465 8180 -3354 0
1325 -1243 -6679 0
-7356 -6513 9210 0
-6974 4624 9259 0
-6654 -5357 -5463 0
-4884 -7671 656 0
1670 -9149 37 0
-3491 8906 5081 0
-2695 6187 515 0
-2501 -1518 8900 0
2418 -7033 2651 0
3967 1225 3346 0
8799 -5440 461 0
9392 -5467 -5396 0
3910 4719 6225 0
-2915 9433 -7693 0
-3936 -4400 2513 0
3401 -2602 5219 0
2441 4207 8742 0
-6681 -2360 7610 0
8375 1570 5390 0
-7821 2388 340 0
6549 -9770 -7682 0
6365 8751 2910 0
-9557 -2564 3699 0
-9440 -8665 8532 0
-4417 -4742 -6498 0
3853 4928 -9753 0
5797 3052 4469 0
319 -8776 -1908 0
-8103 -8431 8595 0
-9017 -4121 -1227 0
-2029 -861 6662 0
-3246 -5990 6800 0
2811 -4614 1935 0
-8365 -9872 4411 0
-2553 -2036 -8691 0
7231 1351 3232 0
9171 -2920 -7406 0
8059 -8647 -5055 0
-7965 -5223 -7233 0
2101 -8200 -8602 0
-8926 2785 7735 0
-2045 6921 -3217 0
-7406 -1179 5702 0
-6955 7811 -9373 0
-717 -6695 -8638 0
9912 -4269 1497 0
8229 6060 -3101 0
5818 -3259 508 0
-8196 -4966 4235 0
1509 -7553 -7676 0
5294 -5579 -455 0
-2211 8729 -1640 0
878 -526 -5525 0
-6595 464 -9010 0
-6371 -8238 -9996 0
-425 -2764 -8799 0
2845 9903 7723 0
-9988 -4367 -3532 0
9642 311 256 0
9096 9498 4701 0
4703 -8373 7776 0
-4829 9154 5433 0
-6102 -2400 -2245 0
3017 8909 1759 0
1595 -1212 8636 0
-4933 -9637 -6871 0
6474 5105 -5428 0
-7328 -2896 5871 0
-6840 416 -1680 0
1028 2100 -406 0
4712 -2655 693 0
-4579 -4151 1198 0
-3024 -3589 2777 0
9365 -1158 779 0
8876 -3641 7700 0
7887 -2488 -833 0
-6915 9707 -6748 0
3485 -2019 -6474 0
6175 4372 -3964 0
-463 -4022 -9555 0
8655 2656 -4535 0
8082 -2934 2428 0
7175 767 -2000 0
-2527 -260 5204 0
-1685 -7206 603 0
955 -5823 -8132 0
-6068 -205 9084 0
-8251 -3536 -1972 0
6961 -8434 -7261 0
5278 -9360 -4019 0
6444 9876 -6867 0
-8304 3088 8561 0
-4814 -7275 -4448 0
8492 3830 7863 0
-859 1808 -4531 0
-7418 -4454 936 0
-4302 6989 6727 0
2968 -908 2503 0
-9713 -9007 -7632 0
5842 644 1066 0
8915 -5947 -9375 0
1769 -2587 9113 0
2266 3065 -3152 0
-2728 -607 -3389 0
-1616 -976 9823 0
-9064 8226 4127 0
82 -572 9694 0
-1686 5947 -9287 0
-7143 -6762 1028 0
-2597 -2961 -5724 0
-5683 4677 3148 0
-2878 -1125 -5080 0
9480 -2458 3103 0
-5352 -5990 8345 0
-6417 -3490 -139 0
7509 -2104 -9759 0
-6133 -1084 -7309 0
-9694 9197 -4634 0
-126 2898 1352 0
4983 -302 6689 0
-4248 -7171 -71 0
8829 1058 -4618 0
-3186 -2750 -4741 0
9234 -9472 9514 0
8347 -7424 -1025 0
-4954 -7473 5188 0
-296 -7023 1397 0
7735 -3825 -9714 0
2645 -5523 -1432 0
5454 5828 -3746 0
-5131 9333 9716 0
-6604 -7577 -8488 0
-5018 -3357 -9001 0
905 -6699 -1891 0
-3054 5076 6889 0
1398 -3252 4791 0
5817 -5072 3523 0
1489 7397 -1730 0
5842 4374 9457 0
-6959 -4736 -4124 0
-4112 -6003 -7797 0
-4933 2053 -1657 0
8007 2012 8411 0
782 -1812 -7484 0
-5988 -1239 9931 0
6006 54 -1343 0
-9063 9039 3334 0
3303 1802 8446 0
-1525 -8726 -452 0
2603 -4840 -9021 0
-1289 9810 -4165 0
-7516 4013 5591 0
-8218 -1490 4632 0
-1675 1031 -578 0
-354 -4352 460 0
6826 -3764 -8644 0
1504 -9450 -5790 0
2479 -6899 -9629 0
5629 -9276 -5496 0
2431 -8801 -1077 0
9038 -9814 -5492 0
-8259 523 6623 0
5945 -2340 -593 0
7933 9232 -5220 0
-6281 6883 -1413 0
-2250 -839 -3980 0
-264 -7203 -6435 0
-4659 -9487 7360 0
2790 -2979 -909 0
8196 2467 -6605 0
5490 6408 9451 0
1897 -8530 -5539 0
-4882 -8528 -7188 0
-4304 -6260 -6090 0
-5681 1682 7691 0
3299 -9912 4271 0
4270 1562 628 0
-5243 -6074 8762 0
3188 8985 7354 0
6823 303 -3563 0
-5694 9539 -7165 0
-8522 -5459 -2266 0
887 -2428 -2263 0
9122 2304 522 0
-2188 -7386 8627 0
8606 -2320 1725 0
-4909 -7642 -5925 0
6940 -6701 4349 0
-3271 7056 -7916 0
7772 -7006 -6080 0
5368 4930 -6658 0
8590 -703 -3096 0
9913 7103 4291 0
-4349 -7762 -3023 0
-9804 81 -3912 0
-4651 9682 -3169 0
-1591 -3251 4515 0
1842 2123 -7552 0
8745 -5479 3719 0
4332 -3204 -8514 0
9468 -1050 6329 0
-7642 193 -1553 0
-3628 -1989 1702 0
-3601 9377 -3250 0
-1099 -3059 -1102 0
3850 1653 -453 0
870 9495 723 0
6929 -2391 -1031 0
8873 -822 -2074 0
-4859 4701 -2365 0
4204 -6666 -8069 0
-782 9360 2406 0
-8748 6467 -3070 0
-1561 -8321 -915 0
7 -8908 -1623 0
6953 4580 -9610 0
-2281 -8777 1775 0
7535 7987 -455 0
1866 7789 6280 0
-3474 -3309 4014 0
1529 3960 2481 0
-4176 3224 -9671 0
6139 -1807 2697 0
-7156 -120 6284 0
-5136 -5229 7302 0
790 -2176 -8925 0
1648 -9894 2204 0
1567 -4853 3742 0
-7581 -6091 -667 0
-8362 112 7271 0
4354 8635 -2125 0
-699 6444 5048 0
8031 6076 -3737 0
-5492 137 -9874 0
-3881 -4521 -1166 0
583 1923 8099 0
623 -5770 -8854 0
-8081 -2724 -2986 0
7258 -6653 5054 0
-7306 -5029 8385 0
-2927 8793 -8291 0
4341 -1091 -3816 0
391 -6379 -3891 0
-5211 -9490 -6501 0
-3699 1761 4405 0
6894 -4315 4762 0
7451 -9762 -5730 0
-5191 -8492 -9651 0
7747 -3 457 0
-3002 2475 2599 0
-4564 3850 -4590 0
-9366 -8713 -6320 0
9014 1363 8085 0
9943 -9636 -1907 0
1486 852 6356 0
-4378 -6849 4146 0
-188 272 -2679 0
8883 -9698 225 0
712 619 1682 0
4105 4591 3020 0
3192 7951 9961 0
8322 -6944 6891 0
9871 -7403 7000 0
-4631 3504 -6985 0
-6536 -2213 4771 0
-2420 8086 8942 0
8946 -1164 -63 0
-877 8773 -7159 0
3657 8314 8522 0
6616 6233 -8037 0
2823 9504 -1497 0
6899 -1804 8046 0
-8740 6405 -6850 0
-9624 -3249 -8534 0
6098 7658 -2519 0
-7096 855 3089 0
-5710 -2498 -1463 0
8713 3584 -3262 0
3355 4270 1803 0
3554 6724 2648 0
7102 -2861 7931 0
9840 -1851 3088 0
-6218 -150 4348 0
2524 -1726 7074 0
-359 -315 8524 0
4255 750 -7676 0
-9037 6952 4364 0
3291 5061 9507 0
-1648 1836 -4213 0
1849 -4035 -8788 0
-6449 -8813 -998 0
-1503 -695 2771 0
3226 -3341 -9017 0
-6339 905 -5332 0
8873 9242 1439 0
8001 5978 7252 0
5130 -6563 6669 0
-3816 -4673 -6389 0
1443 -2382 -5209 0
1706 6619 -306 0
-9422 -3521 -6249 0
-6610 -3312 -3559 0
177 8309 1858 0
-7416 5691 -9727 0
3594 3349 -3479 0
6773 -6481 -2506 0
6786 -7732 8481 0
-703 2676 -8469 0
6663 7353 856 0
3050 -7447 3283 0
9789 -7072 -5989 0
5755 -761 6160 0
3568 -5101 3376 0
7508 -8329 8306 0
-9981 9812 -812 0
-7600 9004 -3620 0
6309 -3731 882 0
-4331 5783 -4387 0
-5982 -8538 9903 0
-9756 2961 -8170 0
3046 7048 9796 0
-9802 -7848 -1196 0
-2359 7296 -642 0
-7698 5220 7323 0
-5588 -3417 7130 0
8296 6854 766 0
4517 -6055 -730 0
8000 2498 -6992 0
-3636 -6007 6558 0
1194 -3826 8745 0
4314 1656 9662 0
2823 6911 5938 0
-5771 -9240 6022 0
5102 -4516 -2146 0
-1748 -1436 -434 0
-3068 5718 -9504 0
5226 -7600 -8387 0
244 -5233 1314 0
-8310 2372 -147 0
3022 7416 -6852 0
1972 8876 -7587 0
242 8669 8747 0
7609 -8767 3028 0
5713 9941 4916 0
3463 7778 9625 0
-4970 -3338 -4001 0
8060 -4687 -138 0
3972 -2336 -3313 0
9860 -6776 5205 0
6212 3934 -1260 0
3794 -1124 -1143 0
-782 -8851 264 0
8931 -3943 7334 0
8964 -8807 2709 0
-5707 4581 5832 0
2555 5195 -1776 0
6130 -2258 -2123 0
-1350 -6646 -3313 0
-5813 -6349 8391 0
3452 596 5194 0
782 9908 -8602 0
7632 1787 4208 0
-3940 -2870 -4342 0
-8722 -4952 -157 0
-4972 5816 7337 0
-4484 9488 9069 0
7338 -3451 9777 0
274 -5447 8364 0
-7493 -3695 -7406 0
6951 -1501 3543 0
-4791 8875 8609 0
-1566 5147 -8342 0
5212 4682 -5021 0
573 -3220 1747 0
-9435 7976 -3502 0
8848 1867 -7784 0
3436 1679 -3663 0
-3551 6400 9415 0
-9036 5364 2311 0
57 -7417 -8158 0
-7777 -8286 -459 0
3060 7267 -1374 0
8173 6391 -9680 0
8890 1995 134 0
-1721 -5273 1695 0
-2558 -6413 -5731 0
6639 8897 -4749 0
-1370 -7457 -2872 0
-1757 -541 -8358 0
-5038 -6870 -5765 0
4107 -1963 -9013 0
2209 9426 2685 0
7637 265 4510 0
7419 -199 -8404 0
5677 1909 -3702 0
6508 7495 6486 0
9048 -4108 7278 0
-9206 -9161 7993 0
-135 3777 6307 0
4904 5314 -8686 0
8801 -3463 66 0
-7320 -858 -6202 0
-8312 -7351 -3464 0
-5743 -1910 2852 0
2974 -3500 7415 0
-1090 2647 -3965 0
8769 9696 -3673 0
-9094 -2508 7238 0
2518 9793 4362 0
7243 3760 -3220 0
8974 8258 5483 0
1570 -5941 -3125 0
-8030 -4308 -4117 0
8343 -6819 9806 0
-4824 -2028 2875 0
-9660 2448 -5244 0
7213 -6204 -413 0
-8913 -8030 1992 0
-3469 578 -1530 0
-6461 -928 935 0
2359 8805 7213 0
5821 -2556 6179 0
-5566 2110 -4546 0
-8124 171 1343 0
2400 -6075 8377 0
4555 -7254 5194 0
4056 9808 9003 0
-1924 9579 8315 0
5389 -1611 -5286 0
-4939 -1928 102 0
465 -6632 -3988 0
-9637 1945 -7322 0
-4707 3218 4689 0
-3801 3372 5010 0
3840 -7093 -5964 0
62 -8362 5467 0
9551 -3036 3755 0
4627 -402 6821 0
109 -3987 -8985 0
-1221 6044 5079 0
121 4761 4556 0
-6534 -7370 6955 0
1121 8732 4002 0
1337 -6515 -761 0
-6622 3565 -5502 0
-6576 -8075 7848 0
-2768 1014 9329 0
-5993 4241 -1697 0
5504 1388 682 0
-7908 4731 5898 0
1052 -417 8591 0
3547 -9726 1699 0
-7740 -2593 6769 0
-455 -7705 1278 0
2061 3674 -1545 0
7800 780 -9231 0
908 7618 -1462 0
-1002 -8225 -8930 0
8018 3786 -6601 0
-1241 -7369 2439 0
-5903 -5330 -3000 0
5891 -8786 3070 0
2684 -2274 9511 0
8385 4591 1705 0
2546 -3826 9539 0
7275 1962 6674 0
1687 -9781 -59 0
7456 -7544 -1471 0
-3348 7747 6729 0
-1750 2731 -385 0
-2830 447 -6259 0
8405 7401 5283 0
1329 -9353 5147 0
9355 -7727 6015 0
592 6422 566 0
-9355 1391 3444 0
6051 1006 9129 0
741 6929 7413 0
2653 3631 -8252 0
3401 -7312 -9385 0
-905 -8791 -471 0
-2241 3752 378 0
-7699 -4859 -3278 0
8442 5340 4867 0
4794 -4825 9616 0
7287 -6795 -2 0
3601 -754 6271 0
-516 -8113 -2459 0
7497 -6016 -2380 0
-2611 -3694 -9665 0
-5982 2849 4424 0
6988 -3905 -578 0
-8402 8309 -9639 0
3050 681 8916 0
-5376 8440 -2792 0
8113 -9843 4616 0
-2214 -6564 -7965 0
9527 8839 -9213 0
442 2515 -8387 0
7461 7547 -1989 0
984 4264 6096 0
-8218 -1175 984 0
6783 6332 -9084 0
8633 -141 8723 0
7487 -3751 -1797 0
1658 5778 -7687 0
2090 627 -6961 0
1537 -8358 4046 0
-8038 -6115 -1410 0
6572 -2404 8756 0
5592 7650 3607 0
3520 7172 -6943 0
3258 -1887 -5845 0
-3829 -2922 8768 0
8797 -7773 6978 0
1510 -6959 4696 0
3259 7899 -4085 0
9103 6324 -2410 0
6219 -1209 8987 0
-1724 -3136 -9900 0
6256 4650 -874 0
3548 1998 2203 0
-9399 -4909 -5163 0
-8185 -2726 -3070 0
-7314 554 -4946 0
3858 6809 -8244 0
-7358 -8808 7280 0
7738 1767 -2278 0
7100 2940 -7843 0
3769 7473 4589 0
5424 2152 -5713 0
8646 -2186 7831 0
-8833 -2576 4696 0
-6000 7951 8612 0
9626 7942 -8553 0
-5028 -268 -7844 0
7335 3380 -3204 0
-3108 -7357 -4152 0
1618 -7007 -4146 0
-9602 1500 2959 0
1243 8908 -3475 0
8779 -209 -3322 0
8419 8474 -1929 0
-9420 2182 5015 0
-3675 -1279 -928 0
967 4866 -300 0
-4309 1385 4022 0
8212 7860 -1870 0
5998 -7269 4500 0
-9289 2022 -8965 0
6884 -627 -4896 0
-2482 -8530 1397 0
-7329 -6307 2078 0
-948 -1005 -8399 0
-5760 2364 -739 0
-6684 -2724 -2734 0
5934 -4667 -6626 0
-6884 3540 -2108 0
9166 -8817 6412 0
2817 -1944 1589 0
-7346 6831 -8613 0
7760 -5897 -5868 0
9419 -8423 -290 0
-466 9267 -3520 0
-1260 2260 8354 0
-8094 1517 5950 0
7798 2895 1775 0
4959 -9684 -4470 0
-684 -4063 -9325 0
7635 -9656 -7526 0
4674 -3017 6312 0
-3579 2847 -1793 0
-1925 -3248 -6810 0
7551 455 -1614 0
5214 -4761 1723 0
6078 -4996 7798 0
-8743 -4810 4427 0
-6525 -2496 7331 0
-4044 3272 6023 0
7083 326 -1766 0
9969 7889 -2774 0
-5081 2527 5040 0
-3911 5411 -2389 0
-3560 -9925 -7783 0
7230 6821 -1156 0
6672 5725 8544 0
3083 -3798 -1482 0
-4302 3523 3285 0
-3684 833 4107 0
2740 5238 7398 0
-5596 2375 -1181 0
-449 -5597 3919 0
-7290 -3577 -4883 0
4454 -7139 5332 0
8534 9472 -3671 0
4730 -7095 -1091 0
-8334 -7896 5592 0
2188 8837 7277 0
8087 -1908 537 0
-379 7278 -8097 0
2558 -5687 7923 0
2326 3513 5277 0
4142 2672 7301 0
8636 -3608 1715 0
-9249 -7171 -8492 0
-1470 6362 2413 0
8772 -7253 -1506 0
-5487 1542 3227 0
6311 -3950 5123 0
-8754 3614 -3090 0
4379 490 -5109 0
-9611 -1212 -4184 0
-2970 8520 7571 0
9199 -6124 -4301 0
5372 4160 -49 0
7868 2241 2794 0
1116 -6584 7389 0
2185 7036 -1233 0
-789 -3704 -2976 0
-400 -8980 -639 0
-4937 1137 -843 0
-9755 -2363 -9598 0
9792 -8067 360 0
-5085 5681 -3117 0
-3652 -6613 474 0
-6414 -9565 -5191 0
-423 6141 9457 0
-8982 -8373 3061 0
6285 2399 5830 0
-6593 -109 4980 0
6618 9338 -6415 0
8084 2762 -2206 0
-9450 6335 -4590 0
1169 -51 -745 0
6728 7195 -2051 0
2487 862 2043 0
-4951 8531 9189 0
-7716 512 -3314 0
9522 8611 5683 0
-7055 8717 -3621 0
-9291 -1627 -3095 0
8889 -1920 5665 0
6908 7058 -8837 0
-9036 -136 -8792 0
-8461 6571 -6039 0
187 4203 -8131 0
-4174 87 -6054 0
4128 858 6169 0
6814 6630 3279 0
-7270 2490 -6887 0
8612 -3117 -7259 0
-3695 9973 -9861 0
-5949 2655 -8830 0
-3682 1145 -7528 0
5269 -5939 -3951 0
2353 1908 4651 0
3954 -2323 -5152 0
5605 1348 3616 0
221 -5373 6759 0
7673 -9485 4733 0
-7578 -4632 3436 0
5259 -9673 1639 0
6257 -8808 -5461 0
9164 -7375 -7493 0
-2323 -3761 4895 0
-3318 5281 8811 0
5198 8302 -6110 0
6350 -6321 8798 0
5778 3756 8073 0
-9885 -7921 -7602 0
-2071 -519 -4898 0
9292 -7514 7284 0
-21 -4368 6309 0
-5607 8724 4679 0
6439 8177 -6814 0
-4353 -27 6907 0
203 -9349 5213 0
3961 1624 2532 0
-9072 565 6261 0
7433 9103 3446 0
6574 2546 -6035 0
-3577 -4996 6515 0
7167 -2395 -2777 0
7709 6292 -3641 0
4159 -8602 9540 0
2329 -2848 8458 0
-6067 -4552 4088 0
-9693 -194 -9612 0
-1047 -6374 7968 0
-7447 4665 7505 0
6891 -3256 -8153 0
-4700 -7766 5730 0
-9528 4401 780 0
4020 -7573 8667 0
-2504 9202 -2360 0
5453 3183 -9017 0
-7921 -9585 -9862 0
-7116 3072 -7718 0
-3073 -8477 4820 0
-7634 1119 -4334 0
-9838 -6590 -4882 0
-2893 8636 2569 0
8805 1282 3205 0
979 -9329 -5086 0
-5536 -7280 4314 0
-5075 -5946 -8122 0
7854 4619 7499 0
4840 -5711 194 0
-1643 -1970 8372 0
612 -459 4973 0
-297 8103 8082 0
-3162 -1171 923 0
-5841 6102 -9183 0
6352 1832 4431 0
7838 7535 -9267 0
-4110 -5997 7354 0
-7263 -3917 -6413 0
4951 -7990 6111 0
5738 -841 -3037 0
-4083 1797 -4075 0
2439 -9098 -5030 0
9813 -3541 -8900 0
-5163 1044 -7192 0
-3312 8329 218 0
6683 -6832 9833 0
-8324 -8568 714 0
-7941 8191 -574 0
-4173 9209 911 0
-4163 7526 -4035 0
602 -5257 8064 0
1544 8794 6468 0
-1624 -2140 2693 0
2778 -6461 6658 0
-9726 5218 -412 0
-5414 -5328 5911 0
-5476 8076 -9376 0
-5702 2345 -176 0
-1920 6820 6783 0
6145 3534 1197 0
682 -6041 -1384 0
6336 -2056 186 0
-9572 -8895 -9406 0
2871 -7790 257 0
8682 -571 -9985 0
-3402 -4193 -377 0
7588 2550 -4159 0
5899 6206 3392 0
3535 924 4013 0
7800 -3207 -8675 0
-5312 5494 -5507 0
1347 1551 6664 0
7617 265 -6888 0
-3862 -2746 7178 0
-6057 -3027 -3777 0
9841 1104 654 0
4574 3975 -5126 0
-8769 -4747 1181 0
-1432 924 -3314 0
-7163 -8829 -2026 0
7540 9170 -540 0
7438 -5463 -6048 0
2855 -2964 -5179 0
8643 -1538 5778 0
-4820 7966 -462 0
1665 4078 9619 0
-3954 8885 3437 0
9001 -3632 8657 0
8715 7895 -4706 0
-7942 -3696 4432 0
3609 3125 -7223 0
616 -6853 7092 0
839 -5622 8955 0
6613 -7547 -8391 0
-6308 -7234 5285 0
9897 -7992 2827 0
8213 2896 1351 0
875 3553 -7582 0
-5317 3193 -1160 0
-1306 -6581 2489 0
-891 7865 7595 0
-9239 194 9459 0
-4167 -3149 1326 0
5796 -960 3490 0
-256 4752 3640 0
3550 -2878 4325 0
-8043 3493 2671 0
9576 6349 -38 0
7796 9204 -3169 0
8092 -9913 -8809 0
2771 -4563 2180 0
-6975 4894 -7778 0
1607 7644 -931 0
8313 2946 -3064 0
-4124 6245 -8576 0
3857 -7300 -1054 0
-750 1862 8769 0
-1889 1896 -3961 0
-2931 6815 -9943 0
6055 -5412 3262 0
8628 -9464 -313 0
9043 -883 3619 0
-8597 8543 -3126 0
-3043 5863 1070 0
3988 -6664 9791 0
9992 2968 -6867 0
5899 2912 7812 0
4751 7230 4210 0
-9476 -7771 -4208 0
4714 -6297 894 0
1662 1975 -8680 0
-2168 8298 505 0
483 -7096 9078 0
-1276 151 -8219 0
9680 -3497 1225 0
9667 4975 3117 0
8974 -4321 1814 0
4267 -1936 1293 0
8839 -9468 5465 0
-706 1039 -4559 0
-7914 -5745 -4811 0
-604 3518 167 0
6289 2632 -6319 0
7689 7778 7683 0
-9070 -4548 -5864 0
2894 -6163 4907 0
7295 -3224 -4492 0
-8464 296 -8404 0
-2843 -6486 4540 0
-8679 8501 9887 0
-4498 3854 9517 0
-4198 8177 5812 0
-4010 7667 -3733 0
328 -4770 -7851 0
9326 417 8794 0
6298 5912 4882 0
-9938 -4114 -3614 0
2154 4118 -3847 0
-376 835 385 0
2257 -2536 -3938 0
4257 7253 -8356 0
5875 -3565 -6606 0
-5564 -5490 -8996 0
2510 -6484 -7564 0
-2799 4134 -1090 0
-9095 -344 7851 0
6410 -2648 -6927 0
1093 8690 5878 0
7221 5779 -6570 0
-6499 3904 -488 0
-8135 -4047 6910 0
-8846 1324 -3949 0
-5271 -2459 -2077 0
3394 -5052 3459 0
-7573 -364 7503 0
-7138 1655 2449 0
9231 7895 2728 0
1772 -244 -6163 0
3734 7867 -7928 0
5655 -622 1962 0
5872 7356 3082 0
1091 -3453 -5275 0
4497 380 -1104 0
8927 -689 1695 0
8187 -2709 -3839 0
-1560 8991 6619 0
-8111 -7132 1955 0
2978 -6722 2336 0
-9692 -3960 -8509 0
9222 3289 -7944 0
9350 3559 -8395 0
6609 -2678 -9254 0
-1541 -6877 721 0
4586 -6438 2279 0
3876 3998 -9509 0
-8875 9941 -2386 0
-9199 -6704 -6252 0
-9200 8197 9853 0
-2638 -3532 -6158 0
2265 -2140 -2251 0
-2541 -2372 -4510 0
-9290 4578 9879 0
7711 1987 3187 0
-979 2295 7125 0
5820 8907 -5575 0
-6258 -1501 -2247 0
-5139 8342 -3447 0
-9926 -2233 -5576 0
-6944 9161 -4912 0
-5028 -221 6670 0
6409 -2948 8282 0
-4215 8984 8923 0
-7452 8545 -1379 0
9092 7443 -4908 0
-1920 -5253 -816 0
2798 -9952 -8661 0
-7331 7266 2773 0
-1842 7714 -6772 0
-9253 -5087 3588 0
4356 4638 -6467 0
-2402 -7807 -1617 0
-5578 7567 7913 0
4322 -3797 -3546 0
8817 -7069 -2959 0
1107 9551 -9607 0
7499 41 2891 0
7881 2439 -3202 0
4012 5923 -2623 0
-3072 7390 656 0
2618 5217 2115 0
8728 -6541 9968 0
251 2907 -7540 0
1014 3196 9927 0
-7770 7294 -9425 0
-7018 -3912 9215 0
-5349 1986 -9666 0
9566 7216 8018 0
7218 4852 4094 0
5632 -7776 4777 0
-18 -9161 -7738 0
-880 -9265 7564 0
-8233 6427 -7056 0
3839 -6731 3338 0
-1055 6884 -4238 0
-4273 -4288 1784 0
3458 5718 2184 0
2994 -4080 -5415 0
1601 -3401 -6420 0
-122 -4074 -7555 0
-7186 9915 4467 0
-6138 -2712 -970 0
5807 7309 2602 0
-7119 -1620 6678 0
2898 3603 -3724 0
-183 -3110 -452 0
3273 4016 -45 0
6766 9137 5348 0
-153 5723 -927 0
-3962 -8189 6503 0
-1089 4618 -952 0
2606 -3596 9991 0
3943 -2837 -4249 0
-2122 308 7761 0
-5174 7416 -1440 0
-8278 -6848 6560 0
-3892 -500 -7041 0
-8206 -7189 -8114 0
1134 2296 -7036 0
2085 -5678 8825 0
6130 -2558 -3953 0
3371 -874 -2830 0
-9727 3277 -1911 0
-9922 -484 7842 0
-1704 -1423 -7451 0
3580 5315 -397 0
-9611 -6156 3138 0
116 7943 -2483 0
-4964 -8725 7828 0
-6542 -4440 6699 0
-9042 3710 2437 0
-7172 1483 8632 0
8193 4463 7111 0
-2431 4433 -1147 0
-3330 5953 -9711 0
-1016 1504 -205 0
-9420 2185 9191 0
-6498 4956 8203 0
-2769 6695 -9093 0
3838 -8592 -2036 0
-6179 -3237 7861 0
-8685 -8743 3571 0
-1178 2735 -8265 0
-1329 9811 2341 0
-8795 -7074 -9369 0
7367 -622 4973 0
6264 4749 720 0
4572 1868 -1484 0
636 -6229 -2137 0
-2321 400 1802 0
-8107 -8638 294 0
-4996 -4956 -8173 0
-5316 -5620 7172 0
-3293 -8750 9895 0
-4517 5464 -2998 0
-6109 7894 -385 0
-3156 -4436 4930 0
-7986 -748 8887 0
3719 4625 3515 0
6296 -598 1348 0
8448 -5071 3919 0
5855 -485 -8264 0
-9166 -1098 -9639 0
6384 3648 -379 0
-2072 4268 377 0
-1017 -461 9882 0
7818 604 -8169 0
-1516 3761 -8440 0
-5786 -4074 3106 0
7093 2400 -7222 0
-4267 -5189 -324 0
-7134 -4872 2181 0
7773 6125 845 0
6675 -3148 -3436 0
2380 -7526 6044 0
-7196 -1583 -7881 0
-4158 -5670 -8169 0
-3924 -9356 -2094 0
3987 9594 6918 0
-2539 -3252 1602 0
-3788 -375 -4107 0
6872 9483 3567 0
-7543 -3174 781 0
-1063 1913 -106 0
-2114 322 -7223 0
4133 3062 -7366 0
-2253 9812 7883 0
5601 -3492 6181 0
4642 1745 -5441 0
-1580 919 -5430 0
16 5837 -3003 0
-579 7410 7973 0
3932 6262 -7540 0
-5378 -489 -4732 0
-5827 1535 -2450 0
-6409 331 2572 0
117 9083 -8837 0
2341 -9736 -6347 0
1578 -5512 5126 0
-6446 -7104 1831 0
-7905 730 -889 0
4605 306 -3604 0
-1911 -7345 4930 0
-9547 6957 6401 0
-1717 3264 -8356 0
4706 -4165 -9584 0
-7478 9041 -4076 0
8130 -6760 6651 0
8584 9450 -3350 0
-2348 -8342 3665 0
-4359 7486 -8327 0
5921 692 2097 0
-4911 -164 -7645 0
4505 9056 -442 0
-7058 6967 -7163 0
-5861 -3251 9458 0
-3180 9687 -78 0
8594 451 2417 0
-1156 9298 3986 0
8252 -2424 627 0
913 -943 -1983 0
-3167 7371 -9431 0
-8418 -7590 -1506 0
9936 -1419 -7971 0
4730 1841 734 0
6763 -1556 -4834 0
-2690 3616 -2188 0
7341 8848 3652 0
8211 -2082 8917 0
-8623 8668 2012 0
-764 -5773 685 0
-7937 7310 -1739 0
3766 -9425 4334 0
8877 -6991 3830 0
-5768 5484 988 0
-9234 -1594 3197 0
-7336 9305 -782 0
1108 8197 8953 0
1160 2773 5837 0
2257 -513 -492 0
-2816 24 7205 0
-3622 -9714 5358 0
4117 -9474 5108 0
-1714 -4442 -2370 0
2797 -3031 988 0
-2124 -3687 717 0
7774 -1863 -4068 0
-1061 2931 -1544 0
-9098 -2132 4892 0
9495 -9048 -6572 0
-1873 5444 7715 0
-2235 -46 5962 0
6331 7403 1410 0
4483 -6597 2131 0
-25 189 8156 0
-9169 -7252 -9010 0
-4792 -9183 394 0
-459 5514 -6414 0
-4381 7022 2614 0
7401 -9469 467 0
-8726 1909 3906 0
2214 -2764 1744 0
9357 -2783 23 0
9419 -6352 -46 0
-351 -9264 5831 0
-1757 -3954 -1483 0
-8128 9104 -644 0
-5420 3253 7449 0
8898 6384 6132 0
8494 8730 -7334 0
8423 4961 -6658 0
8619 7633 -3977 0
-3051 -7781 -7050 0
-6421 7912 9868 0
1028 -2241 2627 0
5305 8605 8741 0
-4887 7168 6468 0
8560 -7519 2022 0
3146 -232 3183 0
-9686 5881 2973 0
1817 -5084 -8370 0
3301 5778 -2760 0
-8974 -295 -6005 0
5434 -4266 8184 0
-7939 9546 4839 0
3695 6862 -7659 0
-6793 2127 -5995 0
-8612 -1422 -9779 0
7456 3492 2946 0
7708 -4736 -7475 0
7260 -3879 -9783 0
4731 -535 4015 0
5645 -6204 -7237 0
8962 4322 -2082 0
-9155 -289 -2921 0
7555 3873 -4798 0
521 8568 7682 0
-457 -877 7625 0
-681 -1179 4980 0
3284 -2223 -8450 0
-5642 -4250 9919 0
8897 3004 2859 0
-8495 -1841 -2512 0
-9986 2297 4209 0
4702 -2594 8479 0
-3642 8095 7633 0
-7658 -340 -9495 0
-6577 -1319 9952 0
5801 54 8229 0
-4895 -2209 5521 0
3990 4453 1529 0
-5009 2789 -2383 0
3818 4603 4768 0
-9769 -4195 6149 0
-996 7166 6985 0
8202 4574 8129 0
1229 -5475 -9842 0
4901 6109 6608 0
857 4744 -5336 0
3680 -8961 7587 0
-6319 8216 -7865 0
7537 -4054 -6678 0
1317 -2604 -9945 0
9081 -8963 -1340 0
-9494 -7343 -5835 0
5330 -4953 226 0
-2130 -9987 -4487 0
9581 4463 -9459 0
-4239 4188 -9744 0
-1126 5277 -1236 0
3348 -6381 4398 0
4013 4930 3393 0
1525 -8643 7310 0
-8044 -827 7980 0
-599 3803 -7728 0
-1389 -8857 3847 0
-8990 156 -1481 0
3636 97 -4365 0
-6625 -8183 8522 0
-7485 -243 -1400 0
808 4190 -3237 0
4458 933 4414 0
-5768 -8013 -5896 0
-138 -3453 -3742 0
-7933 209 927 0
-5802 1450 7064 0
-9949 4324 -1903 0
-193 -9408 -8080 0
-8591 6068 -6861 0
4746 5596 -6104 0
-5363 -9378 7250 0
7309 3098 7275 0
4778 7935 -3453 0
271 -7431 4163 0
8515 -8771 24 0
-4150 -6874 -7654 0
3251 -7235 -9593 0
8550 1612 9027 0
-8390 -1879 -2997 0
8625 -9305 -7086 0
-9943 -8490 -4239 0
255 -9567 2409 0
-1122 -8074 -6070 0
-7343 -925 765 0
8335 -994 5708 0
280 -6826 6725 0
1236 9804 2888 0
-3751 9001 5210 0
-6104 -266 7592 0
-6376 -6095 9517 0
6411 1626 -6260 0
-5479 -7687 -3782 0
-677 6963 -1192 0
-9580 -889 4987 0
2175 -8196 -1363 0
-9804 -7827 2932 0
9221 747 -8579 0
8893 -2208 -186 0
-8893 -2518 -2477 0
3509 -4436 -5284 0
-8815 -7520 5537 0
4987 -3570 791 0
-10000 3705 -1335 0
-6679 9771 -5438 0
1849 6504 8168 0
-3164 2301 7299 0
-2015 3878 964 0
8797 -228 -2778 0
890 -9452 8922 0
-666 -2392 1556 0
550 -7852 9556 0
8527 1202 -2798 0
-6260 -7386 -605 0
2343 627 -3669 0
-5936 -255 -9405 0
9012 966 -6394 0
1705 -7412 7139 0
-9185 7517 -7863 0
6425 82 -2123 0
1678 -8756 -9645 0
-8254 653 1676 0
585 9644 7672 0
177 -8906 3324 0
-4830 3637 -1923 0
7233 3477 8007 0
3393 -8023 6441 0
4692 -8323 4559 0
4127 -6872 7171 0
1856 -1826 -371 0
5164 8983 -45 0
-5210 3324 9649 0
-7585 4765 -9195 0
5780 -6823 -602 0
-8791 -2811 -5217 0
-6726 7274 7282 0
2160 1701 1587 0
-6289 3325 967 0
-2083 -9593 1416 0
7837 1124 -5009 0
2237 1877 3629 0
-6923 -5438 -4182 0
6451 3758 5337 0
7588 9787 7707 0
2450 9852 -4363 0
-5227 5766 8077 0
2350 -9169 935 0
8226 5043 720 0
5187 7689 -5319 0
-9086 -793 1946 0
-9857 56 1422 0
-3272 -2758 2206 0
3238 -3262 -2243 0
7649 -4 8078 0
-8738 -4455 5762 0
1063 -3593 6859 0
-4049 -2812 909 0
6824 7148 9012 0
9295 -7964 -195 0
-1830 -2470 4735 0
9132 8633 -7472 0
2233 -7068 6074 0
-5123 3602 -2169 0
-6777 -279 -2874 0
-2107 -2279 2548 0
8949 3929 7889 0
4339 2759 -5254 0
-112 -1605 4804 0
4692 6777 9233 0
-1658 -9291 6751 0
9171 806 8701 0
-9861 -3090 2939 0
-4763 5331 -9081 0
-4568 5237 -956 0
2698 -9370 1341 0
6084 437 -8537 0
-7592 -9382 -647 0
-547 -4356 -2171 0
2265 -7470 7036 0
-4054 -5831 4288 0
5298 8095 -3621 0
1748 5044 6994 0
7623 7216 6952 0
-6 -6072 2614 0
2705 8164 7529 0
-3724 1909 -3413 0
9523 -9433 -9273 0
3494 4284 -628 0
1337 5711 2513 0
-430 -1885 -7995 0
-774 9560 6916 0
7441 -9772 1851 0
1554 331 -6520 0
2287 -1906 3587 0
-5946 -2739 -958 0
-7914 -8964 -8645 0
-9227 -507 4076 0
-7335 3966 9994 0
-1533 6021 -8750 0
-1810 7960 2090 0
8554 8108 5974 0
-8250 1903 4555 0
-7454 -632 5496 0
1664 -8300 8368 0
-8349 -588 -4889 0
5956 -8815 8418 0
2235 -899 -8566 0
6750 1200 -4584 0
-547 4761 2760 0
-767 -9445 530 0
5535 -4685 8309 0
-2262 4406 6467 0
-8538 -9065 282 0
6797 -1153 3174 0
-4654 2392 2795 0
-4441 -2793 -4830 0
8263 -3029 6106 0
3999 7203 -3521 0
-9932 -7267 -444 0
-4078 -4055 -3636 0
7514 6498 3437 0
-5525 4808 -2314 0
1756 5998 8478 0
2015 -7772 -4393 0
2376 -404 -8098 0
-9057 3819 -5537 0
3121 -8513 -5992 0
7217 -5325 8922 0
384 5118 -6467 0
-7908 8189 7094 0
9170 -4020 -7989 0
8836 -4008 -4694 0
-6449 7162 -2123 0
-8531 4017 3856 0
1989 -8578 8870 0
-4151 -47 5861 0
1542 4441 -4573 0
153 -5279 -6872 0
3868 -9879 5534 0
6517 -1713 -3818 0
-3379 -8990 1446 0
-3623 -8959 6153 0
-4062 8837 6401 0
-5805 8104 7077 0
-9422 9281 4346 0
-7120 -9676 6242 0
-9363 -7872 1606 0
2686 -4922 4196 0
3533 -6750 -8609 0
-9991 -1812 -2158 0
8696 -792 6394 0
8869 -7728 -4266 0
8324 9112 5348 0
9065 -3666 2346 0
-2022 6275 -6445 0
-8005 -6044 9414 0
-1187 5187 2750 0
2986 1324 3334 0
1403 7173 9624 0
-6161 5394 -3589 0
467 8537 -2108 0
-9677 -5552 1073 0
874 5577 -5126 0
-8004 -8767 3166 0
-2956 8238 902 0
-7744 -5795 -2916 0
-4038 -2643 5153 0
7859 -9518 620 0
7300 -6525 -6444 0
2618 6034 8710 0
989 3888 -3464 0
8504 -7341 3059 0
5763 -6901 8394 0
8939 4511 -7108 0
2481 -8656 -3927 0
-4153 -7336 4190 0
-1364 8622 -7361 0
-7041 5227 6639 0
6444 4905 -5224 0
-7201 717 9155 0
-9666 -9478 1873 0
1003 -1360 -7291 0
-5424 -6560 -9080 0
7576 7278 2060 0
-1459 -1569 -8257 0
-6120 210 -4414 0
7262 6271 6614 0
4280 2905 -6880 0
-2921 3203 -2466 0
7747 8815 -2145 0
-9949 7427 5409 0
-2837 -4908 -6074 0
6430 2068 2422 0
-9362 -2270 1010 0
-2283 6978 2123 0
-8436 -2453 6875 0
4677 2819 -2220 0
4408 -1713 4019 0
7250 -4032 -7357 0
5974 -7682 -3837 0
8360 6243 -9603 0
-1894 -7180 -5375 0
-2953 -1147 -2793 0
32 -7636 -651 0
-353 -8058 -968 0
-5582 7917 -6818 0
1820 1042 -3094 0
8852 7104 -8654 0
-7547 5674 6291 0
-4164 2885 -9349 0
7202 -6053 -1376 0
1772 2762 -7043 0
288 5197 -2144 0
-1301 -7023 6755 0
7212 -7574 2329 0
-6019 -1162 5828 0
2504 -2201 7587 0
2639 -1394 7235 0
-4452 6700 2061 0
-9590 2913 -3145 0
6221 -661 -1895 0
8626 -2937 -9336 0
-7318 9461 -4372 0
9476 8738 -4776 0
5125 655 994 0
-8781 7111 -150 0
8259 -2198 2173 0
-7779 9382 -9870 0
-9869 5376 336 0
-4028 -8560 -7021 0
-1570 -5502 -7874 0
-7620 3616 -730 0
6506 -2843 9658 0
-1936 -5965 7262 0
-3407 -7314 -5827 0
-6962 -7878 9096 0
-3808 1252 9057 0
8654 -3819 6890 0
-6428 4659 -8158 0
1705 -451 -9347 0
-9553 -7013 8696 0
-1689 919 -984 0
-2516 9467 1300 0
3346 4702 5895 0
8220 5395 -3988 0
-7849 4391 6899 0
5023 -3866 6340 0
2202 -1737 5990 0
4021 4473 -7145 0
2710 1295 6375 0
2282 1247 7665 0
-4450 -2146 6545 0
7053 -1612 -8295 0
7730 2960 2695 0
-6978 -4402 -9203 0
2358 5164 -1549 0
-6897 6792 8011 0
-5344 -3905 -4820 0
85 -749 9857 0
7976 7333 -9829 0
6601 -3140 -4973 0
-5827 4314 4853 0
4422 9689 1232 0
-4092 1765 74 0
-8213 4024 1783 0
-8377 -6674 -9624 0
1429 1377 -4892 0
9722 -2362 2384 0
4101 1834 9833 0
4958 -1067 -2496 0
-6637 6353 2347 0
2362 -266 4450 0
-2515 1437 -5186 0
-7550 8355 2086 0
7135 954 4977 0
5406 -7693 1619 0
-6245 -1307 8137 0
-108 338 -8866 0
5502 8913 -261 0
1757 -7113 -6702 0
1965 8739 9083 0
8233 -622 1650 0
-9390 -3848 -2359 0
2052 6147 -2402 0
-547 6910 3436 0
863 -9935 2399 0
-484 1649 -5402 0
7842 -2897 8199 0
-5196 3173 2579 0
-3754 -7628 -9235 0
-5082 3095 5267 0
6846 -4024 1737 0
9242 -1760 2187 0
3391 8470 2481 0
7127 -9969 5843 0
1910 2898 4744 0
6698 -4911 -7847 0
9525 6096 -3220 0
-2424 -7231 829 0
8938 1331 248 0
2342 -6039 5995 0
6748 6009 -4787 0
1711 4924 1213 0
2193 -3602 -7115 0
917 7377 -8688 0
474 -5767 6002 0
2137 7859 -5539 0
-5566 1072 -8356 0
5860 4272 7995 0
-3798 3432 8413 0
7802 6872 -266 0
6789 -1122 -996 0
-2 -8397 -7876 0
3653 -4004 2555 0
6681 3362 -671 0
3201 8270 -8929 0
8778 3428 7826 0
-2045 8372 -7583 0
-5375 -6345 -6793 0
-3121 2800 -9055 0
-1579 2141 5404 0
-8542 5034 -7998 0
7584 4179 -3358 0
-633 4768 -3343 0
6061 7698 651 0
-417 -8572 -1264 0
1869 -494 6118 0
-5078 117 -515 0
598 -9212 247 0
-6712 -9103 5071 0
9284 1232 9299 0
5026 4839 -9247 0
-6496 -2459 9825 0
4349 -5726 -1994 0
-8195 -644 -2630 0
3027 3304 78 0
-2228 902 -9268 0
-6962 -4080 5308 0
-2409 1042 914 0
-4399 -6775 1956 0
-1854 -2297 155 0
-6001 113 -9846 0
5265 -5504 -1916 0
-7207 3750 3203 0
8960 2156 9307 0
-8035 -4377 2285 0
-2173 -6615 4828 0
-1084 4142 -727 0
1352 1519 5242 0
9689 -5909 6185 0
69 3195 -2159 0
176 -8389 6369 0
-8060 6969 -556 0
3446 8019 3724 0
204 5321 -7899 0
6547 -4031 953 0
-465 88 -9814 0
984 -4962 4978 0
5866 5117 -9035 0
1310 -4913 -8228 0
-2078 6727 -6885 0
2848 -2468 -9208 0
6146 8372 -52 0
9545 -1245 -3394 0
721 -9896 9736 0
1920 8560 -6101 0
6274 -1801 -690 0
8866 1058 8897 0
7498 2030 -2558 0
-187 -9056 6349 0
9991 -6691 -3732 0
9003 5939 -1384 0
6857 722 -5105 0
-6548 -4319 -3672 0
-3333 -6880 -2833 0
3238 -5899 3606 0
-4462 -9936 -2676 0
-7936 -1528 -495 0
9290 8423 6920 0
-8002 -1525 -4144 0
1456 5877 5135 0
-1370 4172 704 0
1134 -657 2643 0
2691 -8958 -2575 0
-6022 -5454 6092 0
4485 5955 4209 0
-4928 8941 5207 0
-951 -512 796 0
-9477 9148 4691 0
-3118 2359 4916 0
141 -487 3539 0
-8058 -380 -6413 0
6708 -6556 -9701 0
-7877 7398 2777 0
-3283 2472 -6554 0
7230 -4347 -5284 0
1783 -5352 -4964 0
-628 2229 -4189 0
-4524 -8611 9458 0
1231 8019 -8500 0
6708 4283 -1990 0
-1497 1462 4189 0
8153 -638 6149 0
3657 -9710 -8629 0
-3316 -4165 -9142 0
5085 8509 1276 0
491 7936 -1113 0
8533 -8087 6512 0
5853 -4241 4035 0
183 -2740 3085 0
-9492 -7479 2258 0
-7207 -2967 -6227 0
2086 8881 680 0
-6647 3945 -3070 0
6692 1044 -3070 0
2433 8122 1693 0
-6845 -5944 7845 0
-6808 -4218 9667 0
464 -5234 -3728 0
-3737 7524 -8206 0
-1191 -3548 -229 0
-8686 58 9068 0
2450 504 3246 0
3852 1549 -843 0
2717 5102 1448 0
3372 3735 6677 0
-1432 -7064 9026 0
-8297 -8331 4724 0
6239 5501 18 0
-2714 8581 -9536 0
3302 4808 296 0
-5138 4307 6741 0
-198 290 -1064 0
6248 3150 -5811 0
8897 -4042 6448 0
-5914 8100 -2321 0
8383 1862 1765 0
-9597 -431 9698 0
8546 -9520 8684 0
7577 -3551 2035 0
5228 -7440 -3555 0
5329 3727 -9570 0
-8894 5991 -2488 0
-5045 2992 -5838 0
-4329 -815 -7601 0
-9466 -147 -6066 0
-4067 6816 -6337 0
3485 5750 5608 0
-4660 3897 -3136 0
-2670 -5828 6928 0
-7771 8642 -2123 0
-9581 -3297 -6473 0
-7661 5282 -1172 0
2270 -9067 -8612 0
5091 -3345 -4396 0
-3437 -4732 1576 0
-1751 -7818 -6281 0
2847 531 -9208 0
-1070 -6129 4256 0
-4099 -9503 -1014 0
-9672 -3195 -8304 0
-3715 4988 7230 0
-1730 135 -5584 0
4523 6525 543 0
5528 -9630 4985 0
-1211 -8441 1079 0
2708 2658 1363 0
-1977 -3533 975 0
-8699 8488 4997 0
7742 7802 -2502 0
8384 1153 8272 0
1014 8096 -5618 0
-7565 -1639 4354 0
-3451 1194 370 0
711 -8935 -648 0
3412 5292 4271 0
-1104 -8694 -6258 0
6974 -1632 9794 0
2571 -8801 8112 0
-9188 -3246 -8964 0
-5271 -1762 2312 0
2174 -6749 5473 0
-9860 1353 -357 0
-6944 8652 -5387 0
-6225 5422 -3785 0
-8061 831 7870 0
5719 5877 -3340 0
-3341 6822 1002 0
6031 2152 -4877 0
1866 4447 -6580 0
9145 420 4337 0
8301 -9279 4192 0
1094 8897 -3449 0
4765 -8483 8450 0
1251 3882 -5158 0
2039 3117 3682 0
-8327 4114 -5508 0
-438 -4844 428 0
8595 -4808 9271 0
2982 -5987 -2756 0
-2107 8244 8758 0
-8226 7126 3651 0
-4622 -4849 3423 0
7974 6737 3597 0
6533 4944 -5103 0
-2406 4491 7723 0
-1042 1519 9651 0
9633 -7339 8551 0
-9067 -3802 -9932 0
9887 -4864 -3046 0
2445 6210 -3291 0
-2390 -4401 -235 0
7628 -6715 3988 0
-6843 -4210 7970 0
-9823 4603 -9096 0
3955 -209 8147 0
3599 -9058 -6626 0
9838 8521 -7202 0
-3794 -6123 -1746 0
2598 1416 43 0
2258 1164 -418 0
6424 8444 -8558 0
403 5812 2070 0
411 -6538 -8019 0
-1584 -6227 -19 0
8624 9200 5586 0
-5054 -9822 9896 0
-5959 3092 -1347 0
-4833 8155 -6499 0
1364 -6475 2 0
7267 -712 -2587 0
-858 8885 -2341 0
1022 4963 7547 0
-9898 -3072 -7858 0
-4482 6768 -337 0
3257 -4901 1530 0
8991 5982 -7558 0
5138 8124 7276 0
-2975 -15 6012 0
-861 5711 1155 0
4822 1023 387 0
3385 -198 8453 0
-949 -3399 2009 0
9681 -438 1457 0
6295 -2069 -8623 0
5746 -6400 -1242 0
-442 8300 -1933 0
-1797 9675 9549 0
-2082 7099 917 0
-3860 1752 -7725 0
-3387 6411 5624 0
-9909 -231 4558 0
5983 -8816 -5580 0
2708 191 4176 0
-4253 -4623 7517 0
7431 -6487 -6396 0
6888 6958 -9640 0
6199 6075 -1070 0
8392 8081 -9230 0
-5701 -1011 5443 0
-7833 -9787 -6356 0
-4231 -337 -6141 0
6347 -6994 2512 0
6498 167 5273 0
-3274 2468 6611 0
979 -8228 8858 0
-1283 9671 5673 0
-17 -2737 8085 0
-651 5619 9611 0
-9500 9268 -1237 0
-5220 7086 -2551 0
5480 7848 3374 0
14 1900 -2972 0
-1865 4704 -5732 0
-7679 -880 5474 0
-5221 273 4675 0
4265 -135 7500 0
-5713 9321 -3448 0
3817 -5746 6514 0
2654 4851 1380 0
8243 1296 -7841 0
-1331 -2488 4242 0
-5460 6865 3256 0
6240 5263 3980 0
-8703 5236 -8429 0
-3696 8631 -9751 0
-6464 -2849 1026 0
-6945 -570 -5078 0
4797 -3544 -132 0
-7960 5410 -4792 0
2180 130 515 0
-278 -8438 3481 0
8324 8808 2333 0
1749 6444 213 0
-2258 -4291 630 0
-7392 -7204 -430 0
4250 6135 6560 0
4828 -8903 5043 0
1110 -3485 -3648 0
4087 -215 3667 0
-9786 -2156 -4179 0
-4720 4796 -6532 0
-2809 7067 9312 0
5063 1057 -1777 0
1602 -6284 2257 0
-2273 7495 -4743 0
-9652 4482 -7719 0
-4862 8141 6702 0
6567 6373 36 0
9814 -3942 7864 0
671 -412 7170 0
-4643 -2597 167 0
63 5876 -4700 0
3497 -5562 -5898 0
-4092 -9487 532 0
-4574 8284 721 0
3250 4421 2647 0
2747 -429 -8221 0
-3895 9882 -6912 0
7548 9585 -8694 0
-242 4029 -2588 0
-3165 9044 -200 0
-4453 4004 4761 0
8971 -6639 -1834 0
1504 -1999 8528 0
-6721 -386 7481 0
-2166 -1355 8130 0
-2989 -3584 -6776 0
-4773 -27 8203 0
410 7899 970 0
-9690 -8107 -607 0
5534 8656 -1713 0
-8904 6412 3121 0
-142 8764 7368 0
-6598 -5336 -326 0
-7499 -4616 5248 0
-4333 7667 9840 0
1056 -2268 2882 0
8420 7986 -7632 0
-3027 9076 2973 0
2545 -4411 1286 0
857 -7666 3861 0
-1939 -2358 7294 0
-7795 -9537 -1162 0
1256 -1833 -7678 0
-7871 -2156 8051 0
4976 -2455 6638 0
5112 -1178 -4754 0
1483 -3071 1111 0
-4703 -1136 -6868 0
8312 -2452 -3339 0
3064 -4744 8714 0
-9079 -608 -5737 0
5932 4605 -1051 0
4768 4106 -1756 0
-390 1953 -7813 0
-2313 424 3288 0
-5055 -6474 8426 0
9736 3534 77 0
-785 -557 9354 0
2393 -9866 -2555 0
-1588 -8361 6469 0
-9323 3881 2004 0
-921 44 9274 0
6699 9043 -9716 0
4947 665 -1488 0
-6318 2419 -8091 0
2201 -3829 3564 0
-1237 -8748 -8638 0
-700 -2795 6381 0
-999 4863 1022 0
5090 8737 -3853 0
4453 1558 -1995 0
2690 -2405 2421 0
5894 6146 9741 0
3939 6053 3950 0
5910 -5914 1782 0
-2240 -2220 1137 0
7656 7982 -3024 0
-3872 -2345 -9510 0
-6753 -6295 8845 0
-7124 627 4126 0
-7327 -8756 -8866 0
1689 -1140 604 0
-2593 2933 -5760 0
7140 -3904 -964 0
-3046 977 -4083 0
7210 -8504 3120 0
2627 -4835 -4726 0
-1164 5057 4614 0
-701 -8952 -5211 0
-8849 1072 2349 0
-3142 832 -5068 0
2324 -9177 7813 0
-2595 -7859 3087 0
-4834 560 1912 0
-3290 -5866 6536 0
-5637 5163 -4222 0
-3322 -40 8339 0
-903 3754 -6376 0
4534 5693 -3239 0
3525 -3923 9591 0
-2301 -4734 -6104 0
312 -6760 6219 0
-1686 -2859 2779 0
3757 5657 5227 0
6416 5531 689 0
-4491 2985 -3809 0
7351 4864 -9644 0
9723 -669 4076 0
-7977 -8463 6784 0
4546 2746 3942 0
4028 559 -7281 0
4282 -1205 -9223 0
-350 -548 -8918 0
-3908 5388 5683 0
-1640 1899 6562 0
-2735 -7914 2638 0
1609 5815 1197 0
-3390 -6122 4205 0
7968 -2897 8122 0
-5704 7391 -9132 0
-6552 8015 -7075 0
-7137 -8107 -6034 0
4299 8398 -7361 0
-8446 -9538 -64 0
-5104 -378 2677 0
-2772 -8401 -6346 0
-756 1039 3290 0
-8164 8633 4194 0
6769 -8757 -2508 0
6051 -9175 -9780 0
4688 -3278 -8361 0
-4875 6537 -3172 0
1869 -3929 -637 0
-8447 8204 7621 0
719 249 8030 0
8507 -9298 -9755 0
-2654 -1458 -363 0
5766 -224 -7862 0
-5565 3696 -4314 0
4489 4446 7686 0
4773 -6742 -911 0
1610 8382 -1543 0
-6879 1146 -4525 0
-732 3485 3976 0
2107 -5752 6025 0
1302 -6825 -4621 0
-8577 9745 6228 0
2664 -6253 -299 0
-2065 -4656 -1319 0
-4032 -5170 7113 0
4042 -7073 1841 0
7216 3730 -648 0
-9275 -6017 -800 0
3709 -4066 212 0
6491 5682 -6299 0
8895 -3158 -6182 0
2892 6633 8376 0
5687 -2384 6055 0
1626 -1487 -3212 0
8685 -1839 -321 0
-837 3618 -1762 0
7003 2272 -9223 0
1132 -8342 -6553 0
-1024 -4297 5271 0
-7190 -9676 187 0
2626 -2322 -3686 0
7846 8670 3138 0
3218 -8726 -6033 0
-1878 -7448 1917 0
7760 7201 -5399 0
-6168 9051 1630 0
-6297 -4554 3909 0
7253 -6847 6399 0
-7339 9372 -5302 0
7847 2743 -2325 0
7760 -6192 -6655 0
5936 -8003 -5505 0
-7770 -631 4336 0
6004 -551 2275 0
8189 -8053 -2014 0
-8630 1255 -2006 0
1618 3751 -4851 0
8395 -7194 -8740 0
-9959 -2032 6382 0
1008 -9154 3948 0
-5805 5636 4290 0
4220 -6936 -7002 0
-404 6732 -5543 0
1932 6548 -6283 0
6113 9221 2320 0
-1351 -1222 4969 0
-6671 5496 -7920 0
-9304 -6726 8558 0
8099 2975 -8522 0
4798 5724 -6048 0
-6754 3554 5378 0
-984 -6766 -8100 0
1891 -2582 -4123 0
8572 -1821 4212 0
-4484 -2047 1713 0
-2236 6391 4838 0
1155 -2605 -3956 0
-4829 -3480 -3610 0
4305 9688 -8473 0
1184 -8964 966 0
9792 2942 -6104 0
6994 -2382 3486 0
-1816 9115 1999 0
-5586 9695 7540 0
8683 -7959 -6148 0
4068 9939 -4558 0
-5660 2183 7776 0
3360 -6012 7496 0
-9856 -8091 5989 0
-7716 -9750 -6026 0
-1618 309 -5518 0
-7044 6208 -1921 0
-5923 410 -9075 0
8917 454 3914 0
1119 2854 -4388 0
-8710 9739 -1454 0
-5180 4797 8433 0
2727 -8229 -2444 0
-9880 -8876 3823 0
-2560 -511 9036 0
5465 -3484 6376 0
-2961 -9281 -9871 0
3442 -3049 -182 0
126 -7314 -2441 0
-7494 6585 10000 0
9347 -6886 -6851 0
-2031 682 -8851 0
3110 -8296 -6713 0
6545 -24 9736 0
-1493 -7648 355 0
2929 -2531 88 0
-8263 -8115 1511 0
-1770 -5154 6267 0
-1374 -226 -1063 0
9135 -8014 3357 0
1060 -2585 -7321 0
4134 -2862 -8796 0
372 2951 -5081 0
5910 -3344 -6768 0
-6788 9142 909 0
927 4250 -9530 0
-9078 5786 -2494 0
-3521 4482 -6736 0
4998 648 -3013 0
-6386 4822 9361 0
6737 8894 -5615 0
8381 4733 -7244 0
-4651 8312 -7125 0
4728 -5940 -9692 0
-7500 4958 -3542 0
-3307 6926 6641 0
-7731 4058 -3151 0
-4301 435 3910 0
3472 -8257 -8054 0
9155 -2575 -3907 0
3291 -2056 -2016 0
-8980 -6969 2309 0
-8387 -8435 7843 0
-7354 7864 -1999 0
-2658 6489 -6907 0
-6570 2563 7907 0
311 8138 -4125 0
1289 -6377 6912 0
-2905 -2935 -4255 0
3429 -3973 3879 0
-3348 1660 9156 0
-6132 9163 286 0
597 3132 -3147 0
1844 1892 9825 0
368 701 6489 0
4885 -2440 -1511 0
-5447 -6904 -9220 0
2390 -1033 -5356 0
-9332 7755 6963 0
-9917 -1302 -4890 0
-2519 769 5195 0
6278 6487 6354 0
6120 -8659 -2227 0
1507 -9495 1155 0
-1134 -4336 -4487 0
2526 -1034 -6675 0
-8162 6252 7373 0
-484 2200 9839 0
2528 -416 7099 0
2511 -8486 -3435 0
-1917 -8288 1677 0
-2452 5278 -7159 0
-8273 -6609 -364 0
-4924 -2464 -9304 0
-9559 -7029 -6975 0
2 811 3575 0
5267 906 -5896 0
-9715 8855 9182 0
6122 -8305 2104 0
-2811 2318 3399 0
-1643 -6968 7975 0
1323 -3357 322 0
-3258 -2557 -7215 0
-7921 -9626 -3140 0
-2178 8241 7966 0
-6915 -1321 -4283 0
-7548 -9144 -8128 0
-6094 -4090 5749 0
-9938 8676 5750 0
-6397 1914 -6302 0
-3645 7208 8369 0
-2357 7659 -4916 0
4866 6294 6951 0
9380 -7870 1632 0
-1436 8240 7445 0
4986 399 5181 0
3011 -782 -2050 0
7425 -1396 -7383 0
-8241 -5078 625 0
-8776 -5766 5334 0
-2578 6079 -8168 0
2902 4071 -4407 0
985 9950 -1818 0
-9119 -9622 -8001 0
-9831 -6066 2036 0
-2848 1393 -5662 0
7879 7092 4556 0
7578 3327 1900 0
6262 -8790 -5351 0
9815 6871 6072 0
216 6860 -4747 0
-7158 -6285 -6532 0
7458 4472 5390 0
-3435 -6540 3303 0
8535 -9720 1462 0
-4826 -8716 818 0
449 -1914 6717 0
-2714 1 -453 0
9660 -998 4060 0
-7542 2643 -7532 0
-4 -6546 -301 0
-5951 417 -7793 0
4578 6086 1792 0
-8618 -1089 4866 0
-598 -5504 -1251 0
-2004 960 4409 0
-9250 -7579 -3791 0
-4858 -6832 -7768 0
3695 -1375 -8130 0
9732 7809 -7174 0
-352 735 6025 0
297 -2937 3227 0
5223 -343 8315 0
4472 -6325 8133 0
6306 4008 3212 0
-6574 -8515 -9709 0
3207 -6146 1628 0
-4764 -3403 6323 0
-4871 970 -1039 0
8491 -677 3885 0
7538 4241 -1774 0
8660 1259 -1517 0
1774 5917 -1535 0
4422 4246 -329 0
-9711 9193 -6980 0
-4504 -7801 3317 0
446 3110 2458 0
412 -6259 -8262 0
-3912 -3927 -2423 0
-6803 6142 -435 0
6489 7367 -7920 0
-3851 -6917 -85 0
8551 7186 -2072 0
-550 7647 3789 0
8361 7964 -7740 0
5259 -6869 -3884 0
7742 879 6567 0
856 -2429 -4904 0
4112 -6573 3508 0
-8842 2704 -3783 0
7673 -2178 -4892 0
6657 2997 3572 0
7512 8250 7514 0
3540 -5174 3192 0
-6230 -1509 -2304 0
-8541 5481 1267 0
448 -2028 4671 0
3556 -2258 -2684 0
-4565 -6777 3521 0
-6175 -1213 -2992 0
-4790 -9608 -5181 0
4435 -8615 4762 0
1240 -4976 1271 0
6184 -8839 -4022 0
-3644 843 5178 0
-3028 -7037 -3735 0
-2258 -6687 -9964 0
3923 -9265 5285 0
8209 903 6948 0
-5847 623 8841 0
494 7281 8872 0
-9239 -6900 -9279 0
-7788 -410 -6858 0
8792 1974 6839 0
2541 -7907 -1400 0
8642 5104 -2466 0
8708 -3256 3627 0
-498 1486 -5052 0
1226 -7839 8194 0
-298 6848 7070 0
-2370 4121 -4352 0
8263 -6933 2401 0
-1326 8918 7686 0
2744 -523 2839 0
9966 4380 562 0
-5532 -7304 -4167 0
6490 -5113 -9499 0
1182 6391 -9670 0
548 -9375 -55 0
-3240 -6068 3527 0
6008 658 4972 0
-5954 -3977 6521 0
973 -6739 -2489 0
-1040 3767 9064 0
-1149 8633 -3537 0
6675 9666 30 0
-4541 987 -7442 0
3185 639 8416 0
8598 2673 7735 0
693 9885 -7525 0
-5340 -4814 -8667 0
3909 1455 -3373 0
382 4605 -3117 0
8717 2309 -3999 0
1435 2613 3961 0
1607 7736 -6332 0
-7638 8474 -9070 0
4645 -4241 -8860 0
-9967 -8940 -5309 0
7402 -6756 1522 0
1937 7213 -3874 0
-2366 -4929 5857 0
-9467 -6389 -6738 0
2481 849 -1123 0
-4289 -6659 4690 0
-2656 7687 1539 0
-3050 -7378 -5868 0
307 -6110 -2586 0
3130 6621 8602 0
4993 -6806 -9615 0
9563 -1200 3319 0
-8656 2076 7048 0
-3751 7475 -1670 0
1542 5606 9317 0
3184 6202 236 0
-7296 -3755 -9276 0
-1808 -4789 -8665 0
2699 -4798 4734 0
2650 1991 -240 0
5924 7085 -3354 0
-4611 -4775 -1061 0
-1060 -7627 -6678 0
8795 1826 6484 0
1295 3925 -9124 0
-7519 -9051 -7005 0
7970 -4746 4989 0
-6022 -4169 6997 0
-2052 4976 -3943 0
-5562 4052 7080 0
8508 7531 -7767 0
2678 1608 5653 0
4681 -5852 -9880 0
9020 8927 -6328 0
-6643 5795 -2695 0
-1100 7387 79 0
-6698 -9557 134 0
9322 2384 -8014 0
2385 5363 -5841 0
356 3471 -4768 0
3370 -2514 9777 0
-9588 183 -8617 0
1364 3174 -8746 0
-8113 -3699 -3005 0
-5611 -1668 -4125 0
6485 3338 650 0
3622 -7717 -7407 0
-8374 -3970 2563 0
-3254 6934 3082 0
1297 -5907 -5245 0
-9184 2363 -6834 0
-6136 -6265 -8819 0
4430 -5591 -9670 0
-2254 -4569 -4535 0
-6729 -3239 -3832 0
3794 -6666 -9275 0
-4096 6006 -3293 0
-8515 3294 4220 0
-9294 4477 -4922 0
-2784 -8483 -8259 0
9259 5192 4848 0
4543 1910 -8486 0
-1025 3170 5645 0
-4443 1497 1303 0
-7008 3877 -6286 0
-9107 6168 -8766 0
9272 8803 7093 0
7607 9725 -9521 0
1861 -3457 1876 0
-7717 -2764 4843 0
-1013 7505 3719 0
1421 -1666 -1152 0
3594 2810 397 0
2686 -1954 -394 0
-7505 -1549 -5579 0
-5706 -8785 -7530 0
-2940 -221 -6998 0
-7316 6621 -3310 0
-6563 9542 5520 0
-4788 -2166 4196 0
-5800 726 -5347 0
4176 -1009 -5189 0
-9723 3605 -2398 0
-1440 -8697 -7234 0
6944 -7614 -2493 0
391 -5844 -4886 0
6153 -4974 4682 0
-4421 -5982 -2543 0
4717 -1795 1006 0
-6230 1995 5 0
6713 1027 -2543 0
3868 2216 4790 0
-5959 5305 2559 0
-5564 2236 290 0
4270 -1027 6369 0
-3754 5239 -9304 0
887 -9057 -4093 0
1714 -9360 820 0
-120 -7743 -3517 0
5818 3943 -3432 0
7612 -5056 4526 0
-4208 -5891 396 0
7636 3421 -5661 0
-4389 -4932 2535 0
-5457 5970 -3094 0
8777 -7813 -5513 0
-901 -2566 -71 0
2699 -8104 4098 0
2907 2687 -5497 0
-1539 1000 -2014 0
-1641 -698 4427 0
-4585 3754 1151 0
7647 -7911 -6075 0
-9892 8000 -2643 0
-7611 6058 -5408 0
9041 8118 3246 0
-5174 1048 6491 0
-6964 349 2811 0
-4542 7950 -4127 0
7555 -6506 6551 0
3343 -8570 -6276 0
-6398 -3607 -8780 0
-276 -3013 -4761 0
-4388 -5012 9068 0
-1094 -8008 -4514 0
-626 -4526 9294 0
-6924 1015 2850 0
6799 -1187 -3759 0
-3351 5193 4134 0
-5213 7858 9421 0
-3476 1451 8899 0
4356 -1120 9584 0
9017 -5794 -4766 0
6552 791 -8459 0
1560 -2316 9635 0
-5274 -947 -646 0
916 4030 -1306 0
5656 -4501 1675 0
-345 4201 -215 0
1020 -5282 -1902 0
3719 -7859 5713 0
7729 2009 -6761 0
2357 -2000 9194 0
-1207 -7213 5576 0
572 2378 -8088 0
-4233 3942 5680 0
3003 -3844 2768 0
557 -7857 8933 0
9248 -7220 -6596 0
2204 6365 718 0
-9472 2380 6445 0
4046 -7030 -1193 0
-4767 -5220 1349 0
2251 -7064 -1699 0
9435 2740 -5140 0
-9225 -8380 4770 0
5670 3639 1145 0
-8769 -1403 -5396 0
5950 9952 -863 0
2610 -5965 -657 0
1056 6298 3411 0
3156 135 -2151 0
2388 -2409 -4993 0
5376 -2953 2922 0
65 3398 -2728 0
-9884 -7450 9502 0
4645 -9712 -3959 0
5462 4045 5145 0
2090 2188 5509 0
4556 -1906 -5805 0
-4960 6340 4680 0
1490 9340 7131 0
8924 2272 -1630 0
1880 -8596 -9630 0
-6169 -6871 9730 0
2507 2379 8544 0
-3170 -7459 9444 0
-7030 -8275 7110 0
-5172 6329 4287 0
5283 3785 2330 0
-4371 -9208 -3364 0
3854 1951 3558 0
-6675 8704 -538 0
9018 7672 501 0
-4252 -1172 -1772 0
-6475 -6220 -3204 0
8854 9209 1026 0
6163 -972 9809 0
5555 5232 8495 0
-6613 3741 -2322 0
-2500 -5933 -4808 0
2672 9797 -7800 0
-5834 -6819 2606 0
-5670 8017 -8549 0
-6082 2898 -9119 0
-778 216 738 0
-3347 -2616 -4664 0
-8666 5372 5045 0
-8313 7217 5204 0
-2815 -1875 6733 0
-6113 7194 -3904 0
711 -3907 -3468 0
-2862 -2560 -9676 0
-1610 -6504 1943 0
9427 -7702 6656 0
-8118 5649 -4325 0
2786 -3788 6900 0
1532 -7915 -6579 0
-4916 -9300 2031 0
-6954 -4020 4115 0
-2642 237 7124 0
-8830 1057 -8720 0
718 9782 1487 0
9615 -8045 -3069 0
7677 406 125 0
-2390 8828 5778 0
-7720 7526 -6294 0
-8637 7742 7716 0
1139 -3947 -5343 0
-527 1259 -1921 0
9251 3381 5387 0
-6370 -2009 -5246 0
-2867 7858 5680 0
-9926 -5794 7751 0
-9021 -550 -4858 0
8951 -4334 4567 0
-6019 5435 5440 0
-8312 -151 8653 0
8670 5104 9083 0
-1860 -9740 -5881 0
9435 6670 -415 0
-7822 -489 -3007 0
5379 -9940 1104 0
-9564 243 7546 0
-5212 6480 -7627 0
7554 -6871 -7689 0
2787 5307 356 0
3334 761 -4775 0
-5235 8762 -1838 0
3929 7690 917 0
5596 -8007 -4425 0
8114 -8395 5247 0
-4364 -9850 -4790 0
-4154 9166 -1765 0
7757 1122 -6191 0
5376 -4942 -6638 0
9451 -811 577 0
-3509 -7403 4325 0
4400 5016 7666 0
9600 -4343 1208 0
-4173 -1690 2287 0
2540 8893 -4976 0
1365 -2903 -8315 0
-2523 2730 -6296 0
-5716 5 -5800 0
-1486 -8106 137 0
9877 3089 5960 0
5808 -2961 -2933 0
-4959 6660 773 0
6450 -8539 9734 0
-8471 5995 7482 0
8097 6128 -6741 0
169 -294 -1290 0
-8550 2363 -4014 0
6799 1239 4455 0
-9511 5000 -3747 0
5698 -7105 3095 0
6080 3375 9037 0
3493 4200 7973 0
4095 -6452 2512 0
-9478 7365 -358 0
-2370 6926 4612 0
9451 -3402 -1582 0
-3389 -3720 -5761 0
1393 8446 -5409 0
-5125 -9259 -628 0
-5764 -2800 -3014 0
-5232 4296 -1279 0
3558 -6485 -9352 0
8632 -488 -3318 0
-784 -831 8479 0
3636 -8295 -3338 0
7139 9460 -8504 0
306 -3001 6608 0
-6905 262 3173 0
810 1438 9397 0
-5202 -7927 1054 0
-7444 -5263 3287 0
-5735 5876 8129 0
-2543 6187 -8005 0
-3708 -8102 -5836 0
-3519 7469 1555 0
6789 -3783 -4196 0
-8111 -512 7077 0
-1978 -2377 -3492 0
-460 -2771 8316 0
4281 9867 -3168 0
9104 5789 2436 0
2773 3322 6749 0
-1291 7266 -5244 0
8214 -1292 -8682 0
-3906 5914 -5679 0
2389 797 -6082 0
1377 9790 -3620 0
4271 9349 -7240 0
931 -5284 1935 0
-4539 -8892 -3004 0
-6340 -5647 -2289 0
7165 1249 5314 0
2554 -7778 -4151 0
4781 7250 825 0
-6276 5603 -4656 0
-1829 -9371 -2641 0
-3000 6547 3634 0
1066 -5330 -8240 0
-3710 39 -5978 0
-9404 8984 -8846 0
-5072 -4961 -8398 0
-3938 2569 -7130 0
2964 -5642 6232 0
-6120 -7598 3435 0
-9903 3716 6958 0
-3268 1516 -8973 0
4942 -5207 7127 0
-7209 423 2674 0
4377 6045 -1719 0
5666 -2210 -6953 0
6549 -8026 8182 0
-5758 -6531 688 0
3852 6176 -882 0
6160 -7246 -4704 0
4369 4489 4137 0
-3069 2251 -3032 0
-165 -6709 -6649 0
7429 -5203 -197 0
10000 -6451 7539 0
7651 5994 -708 0
7611 -2159 5505 0
1713 -5214 -4229 0
3943 8463 4793 0
-8561 7151 4703 0
739 -3949 502 0
1496 3984 -8001 0
769 2874 7946 0
-5092 8729 -358 0
5004 6422 5257 0
8595 4782 5062 0
9239 9558 9990 0
7202 3136 5513 0
2396 -9068 190 0
9069 9092 2433 0
-4636 -8344 7464 0
8691 -7182 -7493 0
-1240 6759 -6945 0
4968 4050 -5924 0
6197 -8715 -4515 0
-7292 2058 -3792 0
-6289 -5895 -3045 0
-8181 8463 -8353 0
-3641 2168 950 0
-7145 -6180 -1901 0
-9347 -6509 -3037 0
-1473 5676 9479 0
-3642 -315 -8841 0
30 5515 -7878 0
4724 -4334 1295 0
-2170 4511 -6657 0
4355 6999 -3902 0
330 315 6985 0
-5526 -978 -2498 0
5714 -814 -132 0
-487 -8468 8067 0
3926 1854 2917 0
5708 4962 7996 0
-1745 -8615 -3318 0
-1683 -9928 -885 0
-6178 -6405 6616 0
8611 -2473 9180 0
9510 8809 -6304 0
-7125 -2077 9933 0
8847 -2520 2936 0
-825 1184 -586 0
5051 7198 -5868 0
-9308 5415 -4490 0
-2719 -4712 735 0
-8008 -4910 9420 0
-9597 -9658 -5847 0
-7855 -5053 -283 0
-5203 775 -3406 0
-8759 332 5092 0
718 2324 -9134 0
9386 2481 -588 0
8528 3595 1254 0
-8830 -964 9011 0
-3348 5292 -4383 0
4244 -1935 -7358 0
-4909 -6092 -9422 0
-4702 -3168 5948 0
-4185 -799 -6051 0
6184 -1541 8284 0
2281 -9426 605 0
-9395 2520 -4569 0
-267 -7961 -3930 0
6034 2883 196 0
861 3277 1563 0
836 6805 -3765 0
5021 -1416 -5347 0
-2051 -5720 4662 0
-5119 -6514 -5454 0
8221 2273 4689 0
-2917 -131 -1109 0
-4699 5436 2341 0
-2089 -6602 -5629 0
2929 4300 -6717 0
-9366 -8972 7666 0
-137 -1213 3727 0
-4853 -703 5067 0
-4238 823 6030 0
-5056 8291 -1614 0
3280 -6527 -9199 0
-9827 -8875 -3579 0
-7787 -1064 9127 0
9414 9373 -8764 0
3764 -4085 5521 0
-7906 -8026 6018 0
7351 -4830 -2845 0
-3862 -6041 -8330 0
7423 -92 -1121 0
5949 -259 -3188 0
-6909 -9843 1021 0
8422 -5178 -4396 0
8355 3670 -4613 0
3767 -4392 6609 0
2557 -7101 1579 0
-9739 -7533 -3086 0
-8591 -5113 8108 0
8510 3898 3837 0
9800 2763 3739 0
-2577 -3516 2703 0
714 -6329 8686 0
-9803 516 3061 0
1028 7683 2038 0
8430 3851 9806 0
-4285 1381 8918 0
3027 3503 -1930 0
-164 2813 7032 0
-6781 -6581 -1106 0
6995 -7514 5131 0
-2434 7940 -6859 0
4415 -9407 9825 0
1244 565 6424 0
-8732 -8388 392 0
6587 9502 -9276 0
4554 4217 -2981 0
-2474 1869 9070 0
-6014 -6518 6878 0
-1046 8662 6544 0
4177 -2589 -833 0
-4160 211 9051 0
-7559 9872 254 0
3104 1639 -6167 0
-4793 8941 3530 0
9799 335 8068 0
9593 -7959 -554 0
-249 -4513 -4992 0
6467 3610 -7629 0
4043 2948 7916 0
-2456 3980 -2469 0
-4691 -5739 -8942 0
8400 -386 3417 0
3358 5379 -7005 0
3535 -818 8368 0
9919 -5838 5139 0
9114 2385 -1749 0
-6808 6753 -5754 0
-7607 6936 -809 0
-8997 -5020 3885 0
7908 -5090 9647 0
-3868 7195 4018 0
-3450 6093 -40 0
4569 -4066 -9581 0
-9896 -7286 -956 0
299 4677 -2389 0
-2658 -5591 -8145 0
-8422 5729 -485 0
-2187 -665 1104 0
1588 -4425 -4072 0
7527 2431 1906 0
-4504 -4164 -6015 0
9437 1594 9336 0
7849 -7478 9304 0
3195 373 3623 0
-6181 -8270 -25 0
-6779 1575 2289 0
5391 -1003 9752 0
-911 -1990 -4714 0
4991 5001 3957 0
6927 6936 -4730 0
-4377 2144 5130 0
1502 7633 -5725 0
-900 -4639 3081 0
-5530 9085 -5327 0
5197 -6310 -930 0
9386 -9815 181 0
714 320 8412 0
-5203 -3197 -3534 0
5884 9594 -1484 0
8927 4503 -4256 0
6798 9190 3484 0
1309 6055 -1034 0
4210 103 -1112 0
-3568 1203 6910 0
-1256 -7332 -6120 0
-131 -4278 -4462 0
-7396 7417 -3104 0
-243 7583 6182 0
-7442 2168 1201 0
-1757 8274 -6208 0
5675 7911 -7213 0
8804 9484 7601 0
2947 1137 6939 0
9770 3172 4187 0
372 7185 9966 0
-2039 -3175 -2 0
913 -2675 7524 0
1355 7761 9977 0
-2173 4410 -9239 0
1815 8417 8911 0
7151 7076 -6336 0
-7171 -8362 5294 0
5396 4034 3324 0
-7992 -1291 5188 0
3172 1577 -8939 0
7162 8561 506 0
1867 -2638 -1685 0
-120 96 5782 0
-7171 1554 4967 0
6517 3982 -2275 0
-2654 -4029 5803 0
-3980 3741 -6527 0
6149 6419 -9697 0
8955 -6992 -8568 0
6557 1273 -6841 0
-7167 -7601 -1797 0
5507 6526 -2898 0
-5609 -8907 4144 0
-2551 -5757 2109 0
-6869 -3260 967 0
7086 -6735 4148 0
-9120 6122 2372 0
405 -117 -1267 0
-2775 5695 -6368 0
-2479 -2828 -3265 0
-4141 -1145 -4879 0
-8791 4407 2163 0
5662 5996 -9092 0
6746 -8851 -4865 0
-4987 -8842 -5318 0
8162 5848 6076 0
-678 2732 4651 0
-8928 -9194 7619 0
-441 -5664 -6292 0
1009 -6444 -9693 0
-2163 -9671 7961 0
-9615 -5711 722 0
-4708 -4783 -9588 0
-391 2792 -2457 0
-2570 4940 63 0
6572 -8094 6299 0
4225 -9725 -4914 0
-8709 2572 -2751 0
6537 -530 6268 0
-748 924 -505 0
9774 6262 -2249 0
8402 -6570 -9351 0
-668 4213 2680 0
8327 6424 -8087 0
-9378 2346 -2914 0
9803 -695 -1966 0
-8339 446 2069 0
9224 -2374 -7504 0
-6219 -8391 5235 0
-5575 -6282 7686 0
-4081 -2134 -383 0
6341 -7639 -2702 0
-7344 6542 4585 0
6519 -1254 -6194 0
-5812 1965 -288 0
-4597 -9176 9299 0
-4137 -6791 2718 0
860 1836 2254 0
1858 8903 6028 0
-1113 -3012 -3636 0
-4951 6774 -6998 0
736 2137 -435 0
2217 -8105 -8886 0
-9222 -7210 7237 0
-2530 5170 2381 0
7824 -5718 -5591 0
8996 -2195 6146 0
7576 4663 -2548 0
6889 4428 7071 0
2080 8913 -9808 0
7096 -4082 7614 0
-269 -6229 -9168 0
6550 9000 -7059 0
4994 9612 8223 0
-2185 -9499 7260 0
4955 -1635 2542 0
-2511 5698 -7002 0
5821 8045 4394 0
-3761 8342 -5479 0
9892 7616 4580 0
-6409 2053 8708 0
-577 -9297 9679 0
3443 -240 9085 0
-185 6979 -4743 0
2166 9119 9523 0
1097 1152 -8674 0
6060 -3986 -8911 0
5764 5691 -3742 0
4249 2515 -3798 0
4517 8946 -1667 0
-6488 -2703 -1612 0
8660 397 4573 0
-9867 938 -6650 0
-5803 -2145 -1689 0
-1162 4529 -6789 0
7655 -9141 -7501 0
-8437 -3023 -5734 0
-8780 5110 5002 0
6156 9667 910 0
2984 3652 479 0
-9136 2955 8625 0
3875 -3391 -6898 0
4793 -7642 -1166 0
8571 5012 -570 0
-3730 2165 3129 0
-5931 -8671 6534 0
-1273 -8644 -465 0
9070 4872 8392 0
7232 -4106 -8146 0
6152 -4821 -8362 0
1612 -8237 -6616 0
5521 9365 8100 0
5108 9705 -5601 0
1053 -5058 -8103 0
3824 -7142 -7796 0
-2822 5666 -2561 0
640 -7745 7195 0
127 2554 -8115 0
1878 4755 -1694 0
4243 7855 -3351 0
8489 3139 -2008 0
5730 2945 6686 0
6242 5772 -3456 0
-6595 4598 -6015 0
-1532 5649 5857 0
8473 6306 4884 0
-6483 -771 5416 0
3510 6034 7635 0
9567 -3205 -2421 0
8477 -8369 3841 0
5706 -5651 -8959 0
-9803 -5979 -3838 0
-1417 5641 -8712 0
6261 -5242 1596 0
5732 -986 7032 0
-1521 5542 -3640 0
-593 -2257 -9963 0
8809 -8278 2041 0
-9192 -4070 6697 0
6849 -5008 7858 0
454 -1411 5452 0
6396 -6359 7004 0
7318 1694 -2464 0
-9123 -9509 7179 0
8804 7120 -9968 0
-5108 9051 8900 0
1753 5287 4539 0
6537 6963 -8498 0
1913 5415 -5657 0
-9393 -4573 512 0
697 5213 -458 0
-2067 92 1126 0
-7307 5281 -7946 0
-9797 1071 211 0
-9614 -652 9017 0
-3762 -188 -3643 0
9090 5148 4899 0
3280 -7865 -1661 0
8055 -1356 4615 0
-7691 8240 8615 0
2380 -3756 5818 0
-9124 2647 1241 0
-7232 -8330 -3514 0
7654 -9996 -6243 0
7759 5542 -6484 0
5265 -7104 -6673 0
2526 8592 694 0
-2069 -7595 -5643 0
-288 6054 1978 0
-5247 4501 3365 0
4946 5895 -9744 0
-323 -4207 7285 0
6248 -2787 -6350 0
-8015 -431 -7957 0
-2901 -4994 -8120 0
-618 253 -9056 0
-9395 488 -2091 0
3012 6200 -8302 0
-5496 -7063 3677 0
4030 -2779 -4303 0
-1112 -5783 9183 0
7072 1820 -3630 0
191 -7026 -1435 0
7511 -1250 -1626 0
-880 -6697 -1243 0
5826 5490 4974 0
-8739 -576 -634 0
-14 -4933 -3940 0
1010 5738 -9293 0
440 6562 -261 0
-3989 7997 5553 0
-1288 -3170 6875 0
-3690 8387 -7319 0
-7842 -347 4155 0
-9903 -4308 4044 0
-8745 892 7353 0
8356 2327 -4972 0
-1775 6452 -8964 0
8660 149 2356 0
841 6767 -9856 0
-167 -5623 2122 0
7186 8895 1824 0
7177 6135 7081 0
7051 5403 -7233 0
3282 6852 -7054 0
-8269 -1978 -4016 0
364 4298 -2374 0
-5675 4054 -3247 0
9346 6215 2808 0
6964 -2437 1750 0
-5787 -5659 -5856 0
9203 3129 8365 0
915 6032 -1039 0
-8256 590 5709 0
2037 7024 6977 0
8517 -5139 -3475 0
1050 9098 4836 0
-9335 7599 1124 0
161 1899 474 0
8729 -5931 -7824 0
-6421 7477 -1518 0
992 -9520 1637 0
-7664 -5801 7818 0
-4984 3958 -3880 0
-7358 4729 8708 0
9744 -887 7507 0
-5292 5009 -840 0
7637 52 7709 0
9855 9953 -7157 0
1138 3370 -4574 0
-484 -1948 112 0
-956 597 -9497 0
-2651 -2027 8228 0
-6315 3795 -4723 0
9970 -7716 9888 0
7502 -1251 -6380 0
-1195 9012 1009 0
-6118 -7141 8898 0
8604 5513 -1498 0
-2796 -3031 -7669 0
2913 -9933 -8539 0
-4160 801 -4039 0
6786 -7675 -586 0
3285 -5722 6685 0
6829 8315 -6909 0
2564 3820 -7514 0
-4540 412 -1933 0
7028 9300 -3336 0
-6220 -1841 8845 0
-6225 -5938 -5814 0
7193 6680 8301 0
5276 -8870 8501 0
7692 -2678 -2299 0
-7151 -5405 -9502 0
7083 6915 5281 0
-8621 1284 -2744 0
-3473 -9072 7381 0
-7042 -169 7713 0
-3168 -95 -4478 0
-8732 6183 -6101 0
5575 -7554 585 0
-5347 -7090 1218 0
-6196 3333 -8353 0
6244 870 5674 0
-2335 -2228 6482 0
4860 2847 -6242 0
2955 8351 -748 0
8892 -6274 2416 0
-4693 -6288 -6327 0
-7357 8513 -4844 0
7857 -4783 4287 0
-5531 1212 8029 0
8257 -7987 -7798 0
-7189 38 -3371 0
-6936 -4346 -730 0
-7049 1569 4015 0
6698 1388 -9555 0
4596 -7162 -5988 0
2897 -4962 -6615 0
-8674 -6486 5129 0
1843 1466 3141 0
2833 2961 8571 0
-2409 -5714 -2634 0
-3703 9436 -779 0
-6277 6637 5214 0
-8258 627 -3873 0
-2326 -4407 7440 0
7279 9856 4054 0
-4667 -5907 -7950 0
-4278 -3345 -2830 0
4452 -4068 6625 0
-6324 -6691 -5697 0
-5523 -5206 7671 0
-4651 -9802 9514 0
7089 9091 -2767 0
2134 9249 -8207 0
-3616 1809 1140 0
-4505 -7995 4243 0
-9308 5744 -9528 0
969 3382 -3993 0
-2111 9450 4750 0
1990 4872 -4955 0
-7763 -796 -6774 0
-1125 -3281 867 0
4834 9940 -6003 0
2043 -9231 148 0
9522 -9641 8677 0
4043 2337 2709 0
7648 9674 -1899 0
5576 -8297 7200 0
-2584 -900 -4357 0
5140 -4615 -6118 0
-286 -9406 5242 0
219 -7214 7725 0
6240 -9815 -2189 0
1090 -7430 6695 0
-4699 4325 5375 0
3694 445 -2958 0
4891 421 -7122 0
8398 955 -7610 0
9558 -1092 7797 0
8297 -3794 -9564 0
-2080 -732 6461 0
7248 -3692 -2505 0
4159 -6164 -355 0
8160 3297 9410 0
8761 -344 3598 0
-4926 8237 -9496 0
3303 -2312 8337 0
3815 -9889 -8029 0
-4373 2950 9605 0
-3460 418 -7181 0
-2894 8983 -8394 0
4338 6430 5515 0
5634 446 4256 0
-7172 2982 -6131 0
-9465 -6497 -5829 0
89 1414 5077 0
8825 -6100 2450 0
4156 914 1766 0
6586 5109 -9832 0
-451 9146 8506 0
5752 7081 -9914 0
-7608 -8518 5771 0
-7219 2857 -8625 0
-6946 -7533 -1084 0
3160 -4562 7930 0
1965 4556 6645 0
6970 -6835 -2289 0
1224 -2314 4890 0
8172 -1716 4157 0
-5467 -4186 -441 0
2434 -7643 2349 0
-6094 -9882 2085 0
-1562 -5015 870 0
-9984 9785 9612 0
9996 7195 5740 0
3074 8821 -7359 0
-7073 5318 3654 0
3009 1977 9591 0
3582 7795 31 0
9111 9136 9431 0
-2829 -922 -9677 0
-3324 7788 7782 0
9821 -9414 2179 0
4204 -7498 6458 0
-6886 249 9415 0
-4132 -1669 -6991 0
4187 9254 377 0
143 1297 6356 0
668 -7061 7791 0
-4213 2927 7815 0
-7351 -1971 -1612 0
-9095 -7875 7889 0
4579 7956 -6744 0
-314 -9945 5347 0
8820 5024 2138 0
4932 -6996 -6360 0
-8449 8021 9612 0
142 8963 6016 0
-7259 2348 2176 0
7548 8428 -5255 0
-6238 7974 -6902 0
-2374 2119 -6143 0
-3482 6820 -9569 0
-8742 -5933 4614 0
4465 -6141 -3879 0
-5783 -4838 4809 0
3601 -849 5085 0
-8185 5420 -982 0
4954 -4557 5848 0
7586 2615 -6551 0
-1568 8024 -239 0
1562 -8618 2483 0
3755 -535 8758 0
7284 1701 9259 0
5882 6569 -8894 0
1504 -1206 -2900 0
9700 2224 5620 0
-5523 -9145 -8629 0
-6780 8266 4625 0
8566 2039 -4399 0
-255 267 7559 0
-9576 -536 -2596 0
-5620 6526 -4969 0
6009 1210 -7017 0
6411 7755 -717 0
-5855 -4987 -1125 0
-7247 -1180 9058 0
3037 6163 613 0
8339 -661 -3569 0
-6217 -6661 5251 0
1504 4071 -11 0
-9378 -6618 3219 0
-8003 1598 -3118 0
2168 -9250 6328 0
3496 1880 -2638 0
8073 -8771 -5749 0
7197 8244 1697 0
5614 8549 8939 0
-6015 -8207 331 0
2373 2009 -3529 0
-8079 898 -3700 0
8786 2084 -2713 0
2105 -6018 2950 0
-8397 -5003 -8489 0
-5780 1658 7152 0
-2817 9975 -9579 0
2454 749 2717 0
-315 6832 -2522 0
-921 -570 -6586 0
2758 -2873 5978 0
-8428 -2189 1270 0
-9614 7203 6010 0
433 -4797 -5330 0
3725 -2909 -7267 0
-9001 8007 4843 0
2826 -5082 -831 0
4910 1525 5812 0
2799 4742 8993 0
9960 -5901 -7744 0
-8792 -8399 1399 0
1528 2971 8681 0
2062 8831 -6939 0
-3701 5186 -5334 0
7022 -3477 -5370 0
-9504 9479 4690 0
2028 3305 -7861 0
-3827 -5896 -4047 0
-3424 624 5476 0
-1211 78 -4797 0
5719 -7564 -7635 0
408 -7519 -2071 0
-7860 4272 9716 0
-5287 1305 -6079 0
-7693 6986 -6151 0
2933 7538 5193 0
-6499 -8934 110 0
-4253 -6380 -7042 0
73 4283 5899 0
3293 -6869 2700 0
-4465 -714 -5190 0
9775 -110 -9913 0
6295 -8741 7450 0
-9228 -4933 9701 0
6200 -759 -4502 0
-1261 4890 -1495 0
1092 -7606 -4671 0
4081 4127 -9805 0
6112 8124 8973 0
1439 5111 4129 0
6343 -8285 -3767 0
7551 5013 1098 0
9083 7601 9042 0
2442 6212 -1708 0
-5084 -7092 -1520 0
-5361 7579 3269 0
4647 -5698 -2147 0
6990 -4390 -947 0
-4271 -229 2241 0
6329 3923 -8680 0
4040 2312 2096 0
6137 6427 -4785 0
4594 -3789 3353 0
7353 2700 6474 0
8598 1811 -1647 0
4346 1613 -2935 0
9373 -7818 3469 0
293 9394 -4779 0
2149 9464 7643 0
-2652 3028 -8874 0
-1901 -3233 4816 0
7463 2198 -4840 0
-3187 -2295 -7978 0
-5305 -4103 -573 0
-1650 1586 4862 0
609 -7063 1205 0
-8542 -9343 -7650 0
6961 707 5854 0
2463 -4844 -5052 0
5546 1675 -1192 0
-8309 -3937 4418 0
-3268 145 -3083 0
-991 4322 1246 0
5838 -2557 -9400 0
3965 7763 -3182 0
-5149 4942 8485 0
4990 3072 -3022 0
-3767 -3377 -6120 0
9069 -4856 1267 0
4270 5700 9340 0
7013 7558 2045 0
4821 9596 9672 0
-3749 3036 3574 0
2935 -8812 -476 0
4672 -7525 7566 0
-1333 -4909 -8434 0
-8170 1272 -5542 0
9094 -3787 9851 0
-6353 -8980 7932 0
6630 6354 2787 0
-669 -8950 -5626 0
-2612 9080 -1469 0
-6025 -8226 -5786 0
6363 -2694 2753 0
-4263 -158 -5268 0
1110 -1823 4086 0
6879 1325 -1111 0
-5893 8472 -5922 0
-1092 8336 -9638 0
9572 9774 -5188 0
2210 2836 -4039 0
801 -8865 -7391 0
-8626 9750 -6901 0
1904 7818 -7247 0
7397 -8574 6275 0
7479 2719 832 0
-7550 8502 21 0
5938 3295 4847 0
-9683 -1388 193 0
-3740 10000 8367 0
5527 -2762 5342 0
3588 -6317 3928 0
-7932 4806 -5675 0
-4842 2113 -5998 0
-194 -673 6478 0
9323 -6788 5651 0
4023 7210 2868 0
4247 -7841 -2462 0
-9527 -8172 3787 0
-6153 -235 -3445 0
-7982 3168 7091 0
-9991 -8276 -1999 0
8134 4126 -8668 0
-6824 2297 4578 0
2374 3814 5550 0
-9597 265 6068 0
-7459 5008 -3566 0
-2611 3809 74 0
-1767 -2793 -7832 0
7918 -439 -2356 0
8469 5034 9893 0
4389 -9872 8531 0
-9462 -8615 -4215 0
8313 -4514 -8582 0
-4542 -8670 301 0
9505 4352 -7070 0
-9856 -1781 -8286 0
-1366 6676 -8441 0
543 -5246 8506 0
-2136 -1997 -8486 0
-6147 -2050 -8907 0
-8673 -6884 -6973 0
-6136 6854 3937 0
2519 974 3604 0
-9187 -9115 -5812 0
-3268 2516 5398 0
2688 7786 3146 0
-3909 8078 -4367 0
-8621 -4602 -7517 0
-9154 -2374 304 0
5545 -6636 7513 0
-2921 -9940 -9610 0
-2774 3149 9968 0
-6499 -1563 -2292 0
-287 2478 264 0
-3437 1888 6569 0
4478 -9114 7978 0
-9599 8354 -4511 0
2788 -4580 4010 0
6213 9311 -6534 0
-8276 -645 5235 0
-5605 7760 1726 0
1615 -4702 8048 0
8023 -3421 5610 0
5268 3792 -2628 0
2140 -2910 4921 0
-75 -6941 4376 0
-9780 -6195 -4008 0
4016 -2096 7809 0
-7026 -6357 -5734 0
5718 -3361 4485 0
-9571 -7612 179 0
-7835 9068 3507 0
-8821 6950 -5016 0
7150 -9928 2347 0
8587 3724 334 0
-303 -791 -3243 0
-2399 -3445 -383 0
16 1810 6579 0
-1778 -9503 -5707 0
1306 5455 -2946 0
-1599 -5524 5074 0
1463 9563 9149 0
7325 -2666 -2220 0
-9054 -6308 -2871 0
-1828 -1737 2930 0
-9900 -4867 -2097 0
-5025 -266 -2797 0
-9541 1331 5549 0
-2834 -1036 4194 0
1340 -4700 -4289 0
-8217 4489 1959 0
3793 -2236 -2537 0
-6011 2487 4348 0
193 2375 9038 0
-4020 -5991 1749 0
799 7288 -6163 0
3276 -4893 9702 0
3294 8911 354 0
-7127 -3403 -4526 0
703 2522 -5837 0
5653 815 -1740 0
1245 -6088 -2141 0
-7072 2592 -3767 0
-2139 -6504 7252 0
5489 9376 7458 0
2162 -8388 2662 0
-5769 8854 4309 0
-6405 -6125 4003 0
1755 -7046 3707 0
192 5332 -1625 0
-6372 5296 -2260 0
5824 -9194 -7749 0
-1883 -7935 3892 0
-2189 6287 -7835 0
2439 2115 5513 0
2190 -7788 6341 0
3891 7331 6815 0
-1226 -179 -114 0
1649 -1459 6749 0
1786 -4778 277 0
-7252 3860 4618 0
-5318 -9640 -173 0
-1632 -8618 6595 0
-4340 -8941 -1311 0
-7079 -3593 523 0
8619 4275 2749 0
-283 1879 -8099 0
467 -3920 4074 0
-8332 7890 5038 0
2239 1946 412 0
-100 4314 -9202 0
-725 -8445 2387 0
-8143 -574 -7470 0
2763 1441 4846 0
1212 -4097 -8346 0
-5238 2259 6025 0
-3613 3086 -5456 0
-7711 4506 -4905 0
-1413 9753 -8633 0
9872 9644 8882 0
5408 6815 5241 0
9765 9317 -4001 0
-4043 -5763 2554 0
5436 -1864 -5480 0
-8392 -9775 1452 0
3073 475 -4990 0
859 -7438 6792 0
7073 -3031 5744 0
-3983 440 7387 0
645 -6235 7367 0
7113 1733 -4001 0
-5389 8794 2825 0
-6825 1677 6778 0
3467 -7179 3727 0
1239 -4908 -448 0
2764 -3435 5356 0
8242 -9986 2095 0
-5117 -9872 4898 0
6914 8124 -4872 0
5179 -8774 939 0
5281 -7073 -5269 0
2016 3885 3276 0
-6808 2466 -7722 0
-2357 -899 711 0
8848 5921 -2693 0
9272 6111 9125 0
7194 -7820 -5829 0
-2394 7349 -3365 0
271 -3680 -7643 0
3710 -6533 6152 0
1312 1461 5444 0
1415 -9224 2844 0
6823 6549 4502 0
5188 4867 790 0
-6081 -3563 5982 0
-6229 2646 -4017 0
-855 -4774 2095 0
8434 -7576 -1298 0
762 -8044 -7510 0
-229 -6567 3738 0
-9464 -9232 5118 0
1958 -772 3323 0
8704 9046 7058 0
-2691 -8708 -1984 0
-3327 9418 1983 0
-4776 4289 2424 0
-3544 9288 579 0
742 8644 -5284 0
6131 -6046 -2251 0
1753 3116 3258 0
6972 -7604 6139 0
-7422 -7154 -5309 0
420 -9840 -2163 0
3507 -4239 -398 0
1940 804 -6269 0
7875 6505 -2739 0
2952 7862 -7771 0
6333 131 4746 0
6740 -6031 7090 0
-4116 -9314 880 0
-8918 1453 -649 0
-7285 4167 5965 0
1296 -2522 8644 0
-616 6857 -2030 0
-7175 9142 -8529 0
6029 -7543 3187 0
7170 -9118 -1776 0
9278 -7033 -5937 0
6161 -1669 6454 0
1988 2087 -5440 0
-6878 -9766 7807 0
1919 5512 -5711 0
1625 -1294 8828 0
-3760 -4165 -3830 0
4373 9274 -936 0
-5297 4455 5624 0
9726 2185 5399 0
-6816 -1292 -487 0
1190 -7008 4807 0
-8285 1436 -6018 0
-4034 7694 -4604 0
-2566 1284 -5606 0
-857 4257 -9885 0
8796 9757 2795 0
-6744 -1835 -8831 0
3662 -8610 -2267 0
-8911 -8645 -9319 0
6537 5368 -4858 0
5846 1773 7186 0
7978 -9433 -6307 0
-963 -4168 7780 0
-9323 -2868 2764 0
-7117 8578 2570 0
-4337 7655 -9351 0
1548 2596 -5213 0
-9256 5063 9629 0
5603 -7691 5235 0
6860 649 -7925 0
4631 -6516 7870 0
3570 -592 -1646 0
9288 5529 -4260 0
2069 9586 -1505 0
-5917 4584 5313 0
-7247 -4945 3289 0
-9295 5334 2811 0
124 9019 116 0
4298 6637 -3215 0
6349 8064 628 0
-6377 3408 9451 0
-8555 -7644 8241 0
-6120 -3840 -3123 0
-3 -4803 -49 0
-9132 4852 3559 0
2802 2902 2484 0
9962 -1626 5117 0
-8496 -212 -4291 0
-1537 3743 -3570 0
3489 -9989 1031 0
-3828 -1983 4003 0
-9305 6847 4019 0
-2438 6220 -6206 0
4511 6747 -9166 0
6304 -3494 2197 0
-7875 5263 5540 0
3332 6037 4579 0
3620 -2935 -5634 0
-1912 -5103 -7446 0
5693 -3561 6084 0
3832 -6286 -9370 0
-3565 -3568 -7462 0
-7184 7904 -1148 0
7013 9306 9643 0
7835 8007 7986 0
2793 9687 -5809 0
5959 8884 -9035 0
-1026 7522 2823 0
-7861 2014 3367 0
9277 -5028 2401 0
7298 -4703 -8703 0
3595 2924 -2475 0
-8946 -1423 -6181 0
8177 9559 1850 0
3100 -1061 1783 0
-6455 9833 -3276 0
6365 -2174 -1192 0
2868 7654 -8756 0
5744 -9908 -5667 0
-2602 9098 -2670 0
-1368 -7106 -713 0
8573 4566 7172 0
983 -3528 -1431 0
3250 9316 -2209 0
-6586 8873 8088 0
9648 -7207 331 0
8996 -8991 7988 0
-3183 -5231 3318 0
8823 -1861 593 0
-2390 6460 787 0
-1419 7466 -2129 0
-1792 -3601 -6424 0
3670 2523 -3494 0
3313 -2679 -1356 0
-5547 7518 2897 0
-1543 3028 2870 0
5868 -2936 -2575 0
3164 -7992 7577 0
8551 871 2960 0
5232 7064 5895 0
-7833 -545 900 0
6740 9634 -2791 0
-2739 8370 -2983 0
-4432 -3360 3176 0
-9817 -2958 7679 0
9467 3353 6989 0
8561 4369 9255 0
4558 -9917 213 0
-2154 4456 -3631 0
6444 7493 8652 0
-5018 1266 -5427 0
6878 -5253 7539 0
9676 8646 89 0
-7800 9187 3723 0
9502 9729 1963 0
585 4762 4493 0
3154 -3171 -2010 0
-3268 -9230 -9470 0
498 6158 -4835 0
9087 -4816 -6031 0
-3005 -4678 8264 0
3488 8927 -2994 0
6379 496 -8334 0
-4867 7745 -1126 0
2140 4554 3336 0
-8966 828 7657 0
5878 3832 6387 0
668 8342 -1189 0
5080 942 7134 0
7849 7194 2456 0
2312 -9392 -6539 0
-2829 -6430 -8006 0
-3073 2015 -7591 0
8705 8056 5339 0
-6834 3042 -796 0
-9483 -8922 -2658 0
-9054 7074 -6189 0
3726 7699 2784 0
-7292 3068 7226 0
180 -410 -1835 0
267 4803 -39 0
2634 -6390 5867 0
-8461 -6016 -3200 0
-4533 -2619 -9395 0
-6942 -7533 -1120 0
-6675 -4991 -7306 0
-1993 -6809 -6427 0
-7990 92 -2227 0
3381 -801 5318 0
-6981 3630 -7982 0
8849 2856 3213 0
-9154 2184 -5682 0
-7606 -380 -8054 0
1835 6432 6736 0
589 8427 -1941 0
-2903 6615 -7865 0
-966 -3138 -1929 0
7154 -1550 -4880 0
-7594 544 -2860 0
-6333 1510 1974 0
5880 -9590 -2659 0
-6513 8675 -8017 0
-8283 -7564 -9737 0
7764 6309 -53 0
5905 -5847 -1731 0
-7570 117 7125 0
8365 -5193 -7523 0
5351 -4226 -4832 0
-9229 -5889 1866 0
-244 -9849 -8005 0
6690 6886 -351 0
-5589 8419 6681 0
796 1469 -9771 0
-7367 8487 9880 0
-4303 -4722 8945 0
7911 -831 -837 0
-9492 3069 8329 0
-8858 9811 8955 0
4674 -5106 -8280 0
-1981 -5127 -5109 0
-2946 -2304 -157 0
2503 7775 8233 0
-6781 -4721 8700 0
-4944 5751 9814 0
5465 7093 4954 0
3222 8589 9902 0
-8230 2501 -4177 0
-1999 -8871 8893 0
-8409 564 -9630 0
44 -7919 5398 0
7483 814 -4090 0
7436 -3806 941 0
-4620 -7660 6578 0
-4480 -9462 -9780 0
-5887 7461 3021 0
3153 639 6087 0
9474 -1933 -3187 0
-1076 2640 7535 0
-393 3828 9323 0
-9283 5668 -8703 0
-1429 8072 1131 0
-78 1712 4099 0
466 3541 -7683 0
-6428 3473 -6852 0
-8781 -6726 4504 0
3452 -1741 -1387 0
6257 8328 2286 0
-9075 8780 -8482 0
-5865 2668 -5198 0
510 -3006 2607 0
5551 -6793 2115 0
-7068 -77 487 0
-972 -1212 7856 0
-4944 3915 -7415 0
5225 -7676 -7986 0
-26 2260 6284 0
-662 -7960 -6271 0
5761 5325 358 0
8003 311 1323 0
-6623 -2320 -5290 0
7472 9874 -6797 0
-2511 2785 -1943 0
-6994 -8587 -2212 0
-8826 8557 4076 0
-9658 -8114 9613 0
-1729 355 3681 0
6244 6055 -4809 0
3050 -2051 3713 0
-7481 7039 8691 0
-219 -9664 7277 0
-1363 2414 7953 0
2969 -2276 -3624 0
2132 2796 -2346 0
95 5154 -296 0
4754 -1552 916 0
6373 -6234 5610 0
4393 8949 3409 0
-8974 4263 -7441 0
2425 -7525 5051 0
6521 -8241 -9903 0
-150 581 -4773 0
-6616 -1167 -7698 0
-4631 3702 -1588 0
-2801 -3436 -143 0
-7384 -1389 4046 0
-2876 -9252 -4557 0
6830 -789 1563 0
-1415 -7818 -2134 0
-9254 -5127 -2904 0
3794 -3710 2662 0
-8069 4740 878 0
-8204 1065 6393 0
-4213 9604 -4883 0
9361 -3703 -4159 0
-7648 -2287 -1176 0
2121 -5500 2731 0
-7164 -5601 4378 0
1402 4729 -1923 0
-2752 -6056 9913 0
-4800 6946 -62 0
-5899 -1803 3838 0
-8757 3422 4215 0
-5550 -4651 -4984 0
-8154 -8666 1561 0
-5745 -2552 9413 0
-43 -3437 2937 0
1658 6000 -5202 0
-7132 9125 -8415 0
7824 -7361 -4180 0
802 -3263 2905 0
4704 2786 1212 0
-6007 8810 4118 0
9658 -2995 -2930 0
-8580 1551 4785 0
-2820 1219 -6940 0
2078 5278 -1498 0
-9424 -7567 -2879 0
7518 -1743 -769 0
-6261 2617 331 0
6637 791 3757 0
9404 -2208 -3426 0
-1869 6925 6758 0
-1894 -9929 2450 0
9968 -1941 3080 0
-3286 3820 -7848 0
-7074 639 -4192 0
407 7733 -6519 0
-7450 -283 4667 0
8471 -6613 1787 0
112 2629 -6763 0
-4446 1624 -6576 0
-7331 9174 -1452 0
8112 4364 5784 0
7435 6495 -7999 0
6824 -8408 8770 0
7762 -5916 -2718 0
-3193 -936 -2240 0
9741 6099 5895 0
-5132 3534 8333 0
-8545 9529 5003 0
706 4310 -4844 0
-1208 44 -8953 0
2866 5824 4233 0
2677 2110 -5899 0
-7831 3057 155 0
-3575 -2674 3104 0
-7106 -5090 -9652 0
-7181 -2692 -3791 0
-8667 -1190 1453 0
-9782 5937 -5138 0
2393 -5898 2491 0
3286 7372 -1395 0
-9901 -7403 -6615 0
2410 -7638 -9620 0
-8901 9777 -5350 0
-8338 -790 8983 0
-2149 3457 8346 0
4302 5503 -8345 0
-2844 2311 -9241 0
252 2645 9558 0
-2240 -5468 -218 0
3529 8269 2390 0
-8814 -9887 6467 0
-1720 1108 -7734 0
4362 -7758 9778 0
6835 8637 -3632 0
7136 221 3505 0
8321 5105 6968 0
9334 -7395 8958 0
-3398 -3579 -6977 0
-3940 4155 6680 0
-4800 -7696 -7532 0
1185 -9914 -8415 0
7921 -7310 -7699 0
-2111 -8118 9642 0
-7866 -4957 -4677 0
-5170 295 -7436 0
-1859 3572 -9913 0
-7947 -7854 4043 0
-5917 -7273 4536 0
-9827 8547 -6998 0
4528 7292 -2661 0
-3491 -9596 -2528 0
6216 -211 -7239 0
-3808 8705 3089 0
2344 7387 -5847 0
9170 1182 -4472 0
498 4531 7964 0
-9565 -5606 4305 0
-2537 8511 -1491 0
-9550 790 4382 0
-751 9228 -1039 0
-942 -5364 -3514 0
6043 -1795 -9471 0
4515 -4064 -4150 0
-5485 -1482 7293 0
-369 5775 875 0
-3633 267 4879 0
1155 -2484 -3031 0
6912 4282 -8831 0
-2547 -9051 8116 0
4021 -8510 -1298 0
4534 -7316 -415 0
-6172 4605 3428 0
-9357 197 1816 0
-2855 7489 9493 0
-5273 4393 -8298 0
6014 -6333 -730 0
-8604 3529 -8025 0
5401 8114 -2905 0
-3142 8053 1522 0
-1110 -4799 -3297 0
3205 -9372 -876 0
1329 2316 566 0
9701 -210 4262 0
1488 274 -9145 0
6517 -2910 8100 0
-1160 -7277 -5099 0
2947 6818 5203 0
-4403 -3020 6821 0
8386 5104 -9099 0
-9260 -2384 9273 0
9565 707 3935 0
9743 -6664 1117 0
5984 7192 -5654 0
-9849 -7840 7077 0
-6330 -2385 -5903 0
-2728 -2632 9625 0
6029 2707 -3671 0
-5151 8467 -4821 0
-4414 -3085 -8518 0
-7784 -5459 6830 0
4535 -6656 -5500 0
-9112 -6081 7287 0
6967 -3013 -2856 0
4489 4442 -5687 0
-5949 1535 917 0
-3757 9731 6134 0
8323 -1615 2055 0
-7339 8501 -2060 0
3102 -2899 1828 0
4489 -3979 -5880 0
-2620 -6333 -2971 0
-8841 3005 -1785 0
8125 523 7237 0
-9602 7579 578 0
8342 -3849 5278 0
9710 -5496 5452 0
2255 -4710 3081 0
-7601 441 -3378 0
6670 259 -4195 0
-968 3799 -6011 0
-1322 8163 -1348 0
-3774 -6555 -151 0
-592 3067 2999 0
-1049 4188 -2622 0
-7602 -3112 -9400 0
1885 3287 4939 0
-161 2958 -9533 0
7404 -3818 -8184 0
6644 -2124 5561 0
-3557 -6360 -8825 0
-262 2741 5074 0
46 -4004 6938 0
8269 -7385 -1670 0
29 -2050 -5252 0
-5305 -3847 4788 0
-4681 9794 4058 0
-6019 -4569 6920 0
2305 -7505 -1324 0
-3570 -5119 735 0
5541 -1130 -8015 0
-8026 5390 -1436 0
940 -2666 1326 0
5373 2992 -4178 0
8498 -3257 7358 0
-8967 -5642 4295 0
-8148 -6122 -2572 0
9450 162 4666 0
9771 7699 -5159 0
2603 -658 4 0
7893 -927 4016 0
394 -1888 -4383 0
8523 -61 -1303 0
9200 7248 -4409 0
-6883 -15 -13 0
-6752 -2157 8089 0
9588 287 6055 0
-7888 6996 -538 0
-5543 1115 -7416 0
6926 -7391 8365 0
681 -5160 -3075 0
-3934 9280 8907 0
1924 4285 -3074 0
8487 4679 1921 0
4625 -6259 8162 0
2458 1075 -1063 0
4346 -6984 1378 0
6120 -8164 4474 0
3969 639 -3870 0
2417 -8076 -6307 0
5144 6469 -2152 0
4766 3902 9365 0
-5157 2692 550 0
-6863 -9175 3531 0
-4437 -497 -6370 0
-1033 3952 283 0
-6034 -8494 -7829 0
-835 -5779 -9246 0
-4104 6077 -505 0
2346 -8602 -1149 0
7279 -3241 -1251 0
-7369 -6810 -852 0
8234 -4073 809 0
-3195 4501 1464 0
9551 -6118 6611 0
-1606 -2179 2383 0
9986 -9984 -8081 0
9710 -8338 8372 0
-9700 8032 6765 0
-839 9858 -6394 0
-8642 -4108 1006 0
7516 -6503 7057 0
1263 -9202 5089 0
-3751 7495 -1732 0
-4371 6869 -2997 0
-9527 -6988 7925 0
-6085 7259 7571 0
-4025 5607 -3692 0
878 8571 -4191 0
-5850 -787 -3479 0
-7304 -7607 1612 0
1876 -5494 -9760 0
7236 -6687 -8470 0
7623 -2440 7305 0
-6947 9735 -7477 0
4911 -7576 668 0
-2634 -2655 2584 0
1849 -5983 -1389 0
-1568 2494 -9600 0
538 -3932 7749 0
-401 -4328 -8624 0
6226 8685 6743 0
-6672 3078 2758 0
-2292 -3699 8373 0
352 249 -1745 0
-7687 935 2790 0
-5395 -7453 -2511 0
-8444 -4770 -3609 0
6127 7125 4566 0
3066 -7080 -2564 0
-5117 3202 -6502 0
3094 -5688 3004 0
-9651 1320 6839 0
-4164 -6024 2060 0
-8190 -9094 4228 0
-8657 2870 384 0
-7222 4783 4969 0
-2276 3446 7496 0
8784 1622 -5646 0
6572 -3465 3136 0
-7294 -6153 1970 0
673 8556 5196 0
1925 5213 759 0
-9682 2859 579 0
-9683 -8824 4003 0
-3697 -7772 -8969 0
4012 3889 3944 0
8971 7669 7573 0
-7317 -6247 -9089 0
-8998 5245 -5082 0
-3535 5758 5334 0
-4337 -5113 4598 0
-6049 8527 1612 0
-7214 -9335 -7208 0
-5505 7490 -7703 0
8877 8183 7044 0
-9334 -2325 -523 0
-5207 7887 7741 0
-4506 -8077 6914 0
3182 -5523 -5820 0
9095 7299 -5269 0
1772 -2823 2450 0
8469 9201 -9282 0
-2888 -5986 8264 0
1758 -4350 -8268 0
3978 4218 5172 0
-8988 -3658 -1352 0
7181 8814 -9128 0
-2951 7499 -9666 0
4168 -9455 -1441 0
8760 3387 7742 0
-3893 -539 -3058 0
2086 4870 5934 0
5417 -9344 -3554 0
-4641 -4696 8233 0
4731 8395 1273 0
-3033 2060 -5603 0
-1196 5321 3392 0
9598 -7341 8276 0
954 2350 -4533 0
3060 -2665 4140 0
-7010 8510 -5764 0
2755 3957 -3765 0
8657 5900 7209 0
-4000 -7319 4732 0
-9483 4104 -4137 0
-2297 -8581 -2424 0
7909 -4807 9241 0
2937 6008 8129 0
-3890 -7868 -3727 0
-3558 -1601 -315 0
-7612 -973 5000 0
6963 -4460 -1532 0
191 -6059 -8370 0
78 -7403 1048 0
-6486 -4904 3145 0
-5131 -65 6027 0
-9595 -8303 -6207 0
2882 9651 6873 0
-5104 3384 2570 0
3850 9145 7032 0
6886 -1418 4639 0
7418 -8197 1688 0
8349 -2970 6420 0
3540 5300 -2503 0
-339 -7260 -84 0
2026 4157 -6067 0
5676 -5997 477 0
9689 6931 9053 0
5674 9361 7817 0
2318 -6457 1651 0
-7500 -515 -405 0
4535 -3704 -512 0
-5980 18 4854 0
5188 -5270 -6840 0
3600 6209 -8613 0
7178 -2857 1766 0
-5825 4446 -9465 0
-8266 -7914 -1692 0
-6566 -1955 1820 0
-9366 -4434 -4478 0
-5661 -7890 -7354 0
8868 5535 5258 0
-6418 -8355 1285 0
-9612 -7923 693 0
5430 -2885 7647 0
-4614 -8101 -6955 0
8100 -4491 47 0
-7065 9593 6215 0
-7948 4403 -1060 0
-4418 1101 42 0
-9898 7396 7404 0
-6370 -1275 -2616 0
-7244 1130 7495 0
2438 7099 -8649 0
-4173 -1685 2618 0
-6539 68 4288 0
-1445 7544 5915 0
4337 -2422 7720 0
8658 4876 -4516 0
-1555 -1187 -191 0
-2788 7229 -1132 0
-3994 4962 -3906 0
-7377 -7182 -5001 0
7494 8209 -3944 0
-9833 -5424 -5794 0
-7490 -8775 -3009 0
7480 7914 -7745 0
7669 -9071 -3464 0
-4297 -5050 2891 0
6730 -7485 -8944 0
-6868 2373 -7303 0
9269 7642 1947 0
-4645 -7804 8007 0
-1381 1444 -7470 0
-3356 -6512 -2090 0
-5812 980 985 0
1531 4087 1579 0
9093 -4571 3107 0
3160 -2394 -9321 0
-4577 8580 -2617 0
2070 4924 9282 0
9408 -907 6438 0
5734 5771 -9284 0
-3309 -750 -6390 0
2808 -8217 2830 0
-1553 -881 -3816 0
-8750 -9419 -8312 0
-1397 -6849 4165 0
-3165 -3819 6140 0
-5598 -3940 -9507 0
-6324 -9984 5722 0
525 -1491 2395 0
-5689 -5079 4677 0
-3560 -27 5040 0
933 -8658 6622 0
5376 -1877 -1561 0
6337 3498 8784 0
2450 -8736 3428 0
4883 955 -3387 0
-6561 9881 -6123 0
-7710 9574 -449 0
-9536 -4449 -5555 0
-4249 6656 7195 0
6215 3495 -7311 0
-310 8150 5265 0
7884 6193 -7890 0
-839 8656 3197 0
9026 -4384 -8625 0
-7439 430 8207 0
2464 7877 2410 0
-2535 -278 -2462 0
-9302 -8720 -3255 0
9093 -1768 91 0
1426 -3783 2171 0
-5777 2903 -5097 0
-7986 5291 7314 0
7919 -9648 8708 0
-152 7309 -2388 0
6121 -8789 5189 0
-90 -6188 -9135 0
-5718 1416 9787 0
-5023 -1207 -3362 0
-6991 -4065 -8637 0
-7168 7319 -8437 0
48 -8068 3015 0
2501 -435 -8412 0
-4396 1226 7748 0
5840 4458 -1773 0
-2869 9575 -7528 0
-1850 -181 9489 0
4685 -9386 5658 0
4414 -6178 -1624 0
-5209 -5208 7339 0
-6877 -3091 -5864 0
7723 -7049 3601 0
7685 -206 -2677 0
6218 8799 8749 0
-6478 -5268 764 0
-8527 5470 830 0
3995 3176 -2688 0
8429 2804 -4911 0
-9793 7145 -1887 0
3360 -1179 6159 0
9193 -7407 3889 0
6232 -6120 489 0
-1776 -1942 -3347 0
-8726 2726 -8235 0
7222 -6392 -2676 0
7173 -1660 -9281 0
539 839 4223 0
-6804 -5021 -2496 0
518 -2759 -6745 0
-7851 -1078 -3380 0
-376 4485 -31 0
2872 7869 2988 0
-3303 -7214 -347 0
9917 -6009 2598 0
7900 -3208 4962 0
4507 -4456 -4924 0
-3054 7101 25 0
9614 245 4876 0
9177 3803 8640 0
-8180 6540 16 0
1390 -468 5079 0
-7100 4446 -5438 0
-8859 1288 6954 0
-7941 2492 -9446 0
7600 -5444 -8171 0
-2384 -8317 342 0
4263 -7445 5083 0
7687 7696 142 0
497 -7407 -3698 0
3722 1620 -3582 0
8434 1866 -6794 0
-16 -3828 4869 0
5327 -7179 4988 0
5476 7106 -3269 0
-9823 -8911 7954 0
4240 -7313 -8744 0
-4354 -8477 3166 0
-9633 6645 2519 0
1617 6471 -302 0
6591 -5166 -6006 0
-4188 4505 -3797 0
8248 3636 -9612 0
-1862 3287 6892 0
5354 5215 -7405 0
-7959 6672 -8278 0
-8085 -191 -9473 0
-4913 -2161 -7082 0
-5734 -7216 -867 0
8728 9971 -5577 0
4067 2948 -6453 0
-1853 8951 -5840 0
4828 9831 8956 0
7078 -9492 6142 0
-8819 1502 -5327 0
-7381 6524 2324 0
2443 3688 -29 0
7620 -7124 -8133 0
5300 -2264 1654 0
1822 596 -759 0
3870 3595 -1847 0
5762 8362 1205 0
4528 6247 -5946 0
9221 5421 1171 0
-5272 -7369 6378 0
-9689 6025 -6290 0
4332 -4089 1237 0
5986 -9653 -9860 0
8241 9595 -9943 0
4648 -8588 -2129 0
7628 -454 -113 0
-6937 4056 5197 0
-6680 -3103 -9496 0
-6054 3536 1568 0
2199 3113 8588 0
9489 -8629 4477 0
-1777 -2334 6090 0
4781 9552 -6953 0
-8474 4884 2708 0
8999 -8782 -4888 0
-7651 6443 -1256 0
8454 -407 5615 0
427 -6365 7199 0
-6874 -8074 -7164 0
-4449 -7723 9635 0
4115 -6263 -3226 0
4210 9603 -8329 0
9209 3709 -3887 0
5516 -9050 -8364 0
-7598 1591 1087 0
4882 -4851 -6079 0
3265 -5070 3007 0
-9830 7466 -2390 0
1594 -4027 -6506 0
-7417 -4355 8185 0
-1167 -1999 872 0
9811 9162 -6802 0
-9290 6813 8380 0
3989 1595 7540 0
871 -3333 -3948 0
-8168 2410 5782 0
6647 4332 -2135 0
6240 -2555 8964 0
-5598 8494 738 0
-2333 -322 898 0
4655 -7251 -2120 0
1759 1378 -3272 0
4693 -7235 5779 0
4413 -6054 -311 0
4293 -9738 -3167 0
7109 -9650 -8456 0
4445 -2847 -8149 0
-1918 3677 -8597 0
2671 -2186 2253 0
-4103 -5213 -9225 0
-5726 -7854 2016 0
7213 4979 1403 0
-1209 4051 3619 0
4043 584 -2163 0
4756 -5557 -8696 0
-3911 -6653 -5832 0
-799 -7996 4804 0
2149 9272 5908 0
-8114 -8059 -8213 0
-2888 -7533 4355 0
-6034 5037 -7621 0
-8952 9875 -8862 0
6448 -5205 -2364 0
-2637 -1345 -2629 0
-198 -2907 252 0
-2663 5236 138 0
-2967 -1192 -5144 0
-6600 -8807 -2070 0
-2749 5521 8190 0
2938 4560 -2595 0
7170 7831 -7258 0
9221 6255 3413 0
9389 9268 -5622 0
7603 -5555 2635 0
8917 -222 -7597 0
7652 9631 2473 0
-8457 -8690 853 0
6941 -3711 -5222 0
-8608 578 4959 0
9514 2975 -9195 0
9780 -9314 -9828 0
-2950 -8814 -7028 0
2940 7070 -9513 0
-6418 6789 1346 0
7456 94 9212 0
-4754 7678 1076 0
-7221 9231 -3019 0
-4557 -8993 -1779 0
-3932 -3249 -5515 0
-4732 -8864 871 0
-3004 974 -2182 0
-8367 -7574 6481 0
9278 4145 7376 0
2599 3539 -1076 0
-9419 4668 6490 0
-5965 -8459 5425 0
-1064 627 -5822 0
5548 6602 444 0
-6433 7634 5091 0
-5344 -3653 5912 0
989 -2851 8062 0
3095 -2117 -5993 0
1332 5749 9574 0
2696 -4466 9785 0
1473 386 -2288 0
-3896 -1150 -4248 0
-3167 -2376 -3217 0
-9278 9222 2428 0
-9916 4272 -9867 0
5872 9507 -7190 0
218 8058 7303 0
222 1689 -6640 0
-3051 -1634 8488 0
-4683 2937 8321 0
-1109 -4583 1516 0
9410 726 602 0
9601 4983 1180 0
-5875 -2451 -5664 0
9579 8570 4162 0
6850 -9060 -4710 0
-4118 -5348 3166 0
-8705 -1214 -8973 0
-4073 -9844 7767 0
8293 5815 9822 0
1429 -1417 -3720 0
-8531 4331 9543 0
7815 446 2795 0
-4440 -9923 1170 0
-144 9239 3798 0
6785 670 2345 0
2796 2409 7381 0
-5849 -7528 -294 0
6165 2446 -636 0
-1428 190 -9346 0
-6758 -8232 -4911 0
8055 -3719 9980 0
-7570 -3735 5843 0
8153 -9419 2955 0
-4809 7799 -5482 0
1627 -3298 8350 0
-1096 3794 -9825 0
1646 -187 2763 0
5753 821 9534 0
2837 3250 -2102 0
-3102 -5053 -8546 0
2838 -6828 7944 0
7625 8803 8083 0
-9921 -7863 -3112 0
379 -6463 -4169 0
275 541 1736 0
8980 -6028 -5098 0
290 -1770 2584 0
-4720 -2487 1324 0
-9927 -1264 -9213 0
-4681 1708 3274 0
6120 7970 9989 0
-3403 9229 -3729 0
-1767 1950 -3849 0
-3869 6096 -4442 0
-8662 1305 -2089 0
3845 9645 5329 0
8929 3905 9364 0
6056 6911 6581 0
-5156 7500 -4654 0
-4222 -8977 -6412 0
4257 -8682 978 0
-6556 -8007 1750 0
6453 -8088 808 0
-5136 7308 -3835 0
9247 4120 -7365 0
2726 -5016 -4208 0
-2754 -5956 -8472 0
-2429 -6038 8139 0
-7694 3028 -7022 0
-4082 9215 -9486 0
-7173 5853 -9262 0
7189 -3687 -3883 0
3219 1060 -9544 0
2357 7218 6007 0
5341 8222 -814 0
-1705 -2130 -7039 0
-1573 448 -995 0
-4025 -917 8354 0
-5132 -5665 -1427 0
-9650 6576 5087 0
1439 6051 9438 0
-4011 -5356 6484 0
-1144 -622 -3958 0
1095 -734 6621 0
7760 -7855 -9616 0
-7740 2349 -9872 0
1260 -894 -2010 0
-3057 2571 5772 0
7066 -1666 -234 0
-778 3232 460 0
3076 4692 -552 0
-8547 6370 -523 0
3035 -303 2188 0
-5838 -5318 -6165 0
-6664 9124 9246 0
5123 -106 -9165 0
-9159 2465 -564 0
-2549 -919 7681 0
2838 -5179 -7687 0
2099 -2305 -5055 0
8200 6810 3215 0
7752 -2379 -9999 0
4282 -7126 -1998 0
4340 6504 -4832 0
2126 -2656 -1670 0
9281 -5726 7945 0
-1506 2311 -1665 0
2701 -6388 -4026 0
1790 9280 7432 0
9610 -2711 -2019 0
1934 -5099 -2574 0
3468 6301 9925 0
-7381 7236 -5213 0
-8436 7034 2493 0
6514 31 -6122 0
433 4988 -6199 0
9213 8185 7610 0
5759 -9728 -2351 0
-5526 -7922 4008 0
3158 7366 -7532 0
2886 4207 -2130 0
-7786 2478 -897 0
4255 -4323 2352 0
4106 5572 -3777 0
-9600 507 -4053 0
2929 1882 -5748 0
7886 9336 937 0
133 -4117 -7806 0
-1157 -382 8039 0
-4552 4763 9181 0
-5103 7959 -7910 0
206 8380 -3026 0
-7883 -724 -2552 0
1858 -1879 -9654 0
2130 2360 8400 0
879 3124 -4228 0
-7982 894 -3820 0
3901 9078 2196 0
-3798 -5559 -3912 0
5781 211 -2969 0
-2053 1727 6627 0
8341 -3913 -2898 0
-563 8604 -9580 0
4125 3210 2481 0
6952 -9129 -1237 0
7186 4175 9922 0
1895 5134 -2706 0
695 -593 -5882 0
-3161 899 -3541 0
-7885 1202 186 0
-2049 8134 -2046 0
4540 2820 -5730 0
-7863 -3864 885 0
5573 -3181 -5973 0
-9431 5776 2162 0
-53 -9660 -132 0
4511 -3994 -8447 0
633 -4075 -9985 0
2693 7234 -2459 0
-7515 -4694 -4017 0
2769 1725 8149 0
4600 -8533 -7961 0
3522 -1498 9491 0
5915 9029 -3142 0
-918 4135 4938 0
-848 8572 7324 0
-8693 8961 3707 0
-9413 6050 3155 0
-4988 9460 1201 0
-8958 -2726 1690 0
-4236 4675 -3750 0
1890 -5142 -226 0
805 -1556 3364 0
2498 5019 1011 0
-2591 9904 -7788 0
2779 5735 2449 0
7261 5925 841 0
-8575 5911 2419 0
5663 277 -5703 0
-3780 -4861 8539 0
1865 4059 444 0
-9979 8190 -4592 0
-9876 7447 8588 0
-9574 -8161 4135 0
3607 2200 -3290 0
-124 -6512 1599 0
-3932 -830 -1145 0
-7069 2719 -1119 0
3239 -8501 7798 0
-3232 -4704 -8459 0
-3382 -1153 -9254 0
7968 -7096 3761 0
-8480 8386 -1778 0
6890 -4636 5108 0
-8607 -1033 5849 0
-3600 -5547 19 0
-1175 -1400 6490 0
-429 3110 3289 0
-1276 3705 -3957 0
-6738 -7687 7374 0
1804 -7301 -3017 0
-4647 7019 9443 0
8949 7315 -2947 0
6224 -4205 -9211 0
-9568 2648 8952 0
1047 2810 -5049 0
4965 7267 3413 0
-5528 7644 -6363 0
-6390 -7334 -9254 0
1153 -9410 638 0
9533 7275 -9247 0
5788 -5327 8905 0
-9467 785 -8291 0
-8183 -8487 409 0
-6944 -5710 690 0
-2355 -258 4459 0
-1413 4629 518 0
-2597 -8365 -2530 0
3359 5512 3336 0
5995 -9865 -8109 0
-3856 -6954 -2972 0
-3853 5932 5791 0
-4942 -3505 8690 0
-4464 -1276 3789 0
-6512 113 7101 0
-1554 6520 2649 0
-3973 -8220 5822 0
3289 9883 210 0
-7413 4532 4170 0
306 7637 -6936 0
-5042 -2974 7511 0
-5778 6344 6802 0
-5895 3653 2214 0
6199 483 8328 0
-4359 -6515 1464 0
-7977 -970 7098 0
-1866 4830 -4744 0
-1773 -4723 -2193 0
7851 -9547 -2277 0
3778 644 4143 0
-7699 -5849 1400 0
-2442 975 1699 0
-2072 4553 -3603 0
5732 9037 -1848 0
-9751 7354 -3337 0
9298 -5545 -8587 0
-437 -1439 3295 0
436 6015 -3847 0
1638 3463 -9606 0
-1922 -4640 5673 0
-7943 5547 1475 0
5924 1795 667 0
4101 -8390 -4900 0
-5139 -4 6870 0
-6136 5686 -1879 0
6275 -9225 -4595 0
4818 3111 -3382 0
9194 3581 7245 0
2208 8408 -8158 0
3588 4656 -3136 0
7331 -9978 147 0
-4311 -586 4425 0
9120 -1780 -1773 0
2470 1016 -7062 0
7274 -7808 4363 0
9532 8830 9809 0
-2847 1353 3178 0
2727 -8245 -3012 0
-4681 1176 5936 0
-2753 -160 -4772 0
1016 -8623 -7490 0
-6564 -502 -4598 0
1211 -9963 -5027 0
-4711 9666 2291 0
-4062 -7198 773 0
-5475 5300 3507 0
8047 -6008 3548 0
6011 -4830 3710 0
-5110 9476 -3157 0
7980 -5848 -5845 0
8701 -3539 4517 0
-2263 -6390 -5560 0
-4640 -2391 -9112 0
9546 8759 8768 0
-150 2625 6605 0
-972 6313 -6255 0
-9032 7452 -2651 0
-7425 -2568 7019 0
-8641 -4311 4053 0
56 -5349 -9465 0
-5643 -2520 8334 0
-5590 4079 -6908 0
4019 5965 -6301 0
-5020 3786 59 0
1998 9241 9945 0
-9542 -3714 -572 0
-1496 -4821 6886 0
9979 -9989 -7375 0
7421 -743 -6663 0
90 419 -398 0
4325 -8994 6861 0
-7905 -3543 -9682 0
-5715 1560 -9039 0
-620 -1582 9739 0
8029 5121 7613 0
-9025 4664 887 0
-8859 8199 -6531 0
-8173 1481 7906 0
2452 2030 -2443 0
-9667 879 -2270 0
-3234 -1718 6969 0
2122 3428 -5044 0
-7985 -6027 -3685 0
-8602 -5125 4659 0
130 -6212 1004 0
2461 -3243 6665 0
8189 2593 -3887 0
-8641 -9256 6035 0
7215 -6816 6097 0
-4408 -3010 9281 0
-4601 1637 3289 0
5587 -2293 2904 0
9859 -6485 -5824 0
7773 -1221 7624 0
-2333 -4916 3280 0
-2705 4031 3505 0
-130 -1703 -8989 0
-6106 -6860 -4579 0
-1834 786 -3142 0
-7101 -2273 1105 0
-9482 -8320 5027 0
-7130 7844 9490 0
-5331 -4677 -6718 0
-4731 135 -3201 0
-5588 3348 -4264 0
1412 3803 7423 0
5186 9912 820 0
3616 1680 3568 0
9391 2426 4180 0
6830 2688 -3500 0
-1173 8037 5267 0
-539 6163 -8902 0
-368 3278 9309 0
8500 4359 6274 0
-2671 -9341 -2793 0
108 7766 -6831 0
8063 1367 -6844 0
-3004 -5562 9240 0
-1417 -627 4397 0
2887 -1834 6667 0
-1654 -7556 2268 0
-1935 696 -1927 0
-2998 -8070 1302 0
7263 -2751 2966 0
9994 -9269 8752 0
6890 -8534 7206 0
4999 661 -8078 0
7655 -381 -2036 0
-9132 9684 4186 0
-1718 5344 -9642 0
4723 -4175 2535 0
-9020 -4262 -2225 0
-9362 8062 -3671 0
-9928 -9954 -3907 0
7903 6462 4740 0
4878 5712 7676 0
-9930 -51 -3472 0
6179 6489 2569 0
2609 4740 -1948 0
-9977 -5977 -7593 0
6584 3308 -9574 0
-4338 2952 -6574 0
-7932 4544 4677 0
-9307 -9985 9506 0
5817 4811 2226 0
6515 -3354 -7918 0
2978 -4855 -1453 0
-3086 -7114 5379 0
-3703 5201 6694 0
4165 -2551 -8394 0
3620 -4172 -4915 0
4139 4892 2899 0
-8860 -6848 -8532 0
-4993 4842 -5430 0
-8789 7436 -4770 0
-4942 1624 1805 0
-1446 1401 -6210 0
-118 8590 2136 0
-1450 -2789 6862 0
5046 4038 -9537 0
6285 7735 4405 0
9462 -1615 -7087 0
-4479 7418 -4100 0
80 -9362 -5416 0
-5826 4314 -4840 0
-4957 1685 -5619 0
-5386 2724 6709 0
8849 -5028 -1219 0
8424 -1490 -3839 0
-3796 -2375 3570 0
9070 -7208 -2471 0
-2489 -9743 3858 0
-5567 -1057 -6549 0
-579 -7034 3314 0
8366 -6836 -397 0
-1760 -5847 618 0
2041 4118 1265 0
5318 3246 -8597 0
5594 -1664 -597 0
4723 -8004 6230 0
1567 -1445 -702 0
-1770 -3992 -5714 0
4225 5255 6545 0
719 8016 3218 0
-4021 -9882 -2983 0
-4312 -2749 -9345 0
-5801 -3247 7386 0
-1689 -8840 -7268 0
4234 -9802 -2319 0
9251 -3506 9008 0
-6368 1799 9380 0
-2954 7858 189 0
-8577 -2343 983 0
-5191 7997 -4250 0
-5040 -9986 8895 0
-4057 -9715 7914 0
1847 -6094 -1302 0
-4888 706 439 0
-3983 5086 7929 0
-1030 -2869 3760 0
-5997 -9854 -9296 0
7256 8114 5937 0
-9513 -4335 -4322 0
-6657 6860 7365 0
5397 -3173 4629 0
927 9701 -4814 0
8822 -5004 -1740 0
-4988 4782 -6874 0
-4945 6873 564 0
-4488 2976 -330 0
7561 -2282 -2612 0
-8810 -8360 5972 0
-9788 -6116 -3753 0
9795 1429 5976 0
2252 -2556 -9314 0
8948 4729 -4356 0
-8523 -4229 -1160 0
3244 -4219 751 0
982 -5060 -7180 0
2308 1762 -4920 0
4084 -7205 9100 0
-8058 -8695 -8250 0
-9402 6785 5669 0
-9574 -7896 3492 0
5972 9822 -6986 0
-9113 2167 750 0
4946 -6055 2434 0
-4047 -8131 2274 0
8913 169 8931 0
7757 4745 -8633 0
8368 2553 -3697 0
-7711 5982 -4334 0
-1594 -2107 -7154 0
3640 -3393 -8360 0
-9005 972 5641 0
-5782 -8493 -7688 0
1114 6551 1852 0
-4242 -1008 2781 0
9783 -5229 -1516 0
1025 -3575 3191 0
-6170 -8248 7866 0
1684 2635 -1901 0
-9985 3932 9926 0
-2876 -787 7116 0
3582 9372 -7558 0
2039 -4699 -674 0
7675 -7520 9988 0
-7680 1753 -5171 0
-59 5685 -5903 0
9887 -2257 -6217 0
930 2544 -3025 0
-5315 -5408 -2316 0
-6183 5072 4686 0
7955 5650 8771 0
7550 -2717 9473 0
-7409 -563 4813 0
-1067 -1848 -2240 0
-9855 8535 -2927 0
-3686 4863 953 0
894 -2557 -2983 0
-8613 -8576 -7859 0
8455 -2866 2411 0
-2005 -6312 -5325 0
-5587 8753 971 0
-1464 -4210 442 0
-6650 5117 6422 0
-8110 5554 -2695 0
3392 8986 -7734 0
-8132 -287 2354 0
6135 1100 8108 0
-8133 2187 -5869 0
-2671 1304 133 0
-1906 -2689 -1893 0
-6198 5371 2926 0
2769 -3409 2503 0
8797 -2723 -6814 0
-7363 2080 -614 0
-1404 -957 4381 0
5013 -4840 7825 0
-3035 3386 -4205 0
9512 4654 -3979 0
4443 5196 2582 0
-6710 2516 -758 0
4343 -8980 -6433 0
-3200 2169 -7209 0
8746 5564 4988 0
6614 -1900 -874 0
-4419 1700 3450 0
1108 6859 -2495 0
60 404 2925 0
467 8527 1860 0
1650 1951 -973 0
-2764 5796 -7109 0
-1275 -4031 8745 0
-7530 -1553 -6501 0
8116 6637 9755 0
2551 8996 -7159 0
-3612 5967 5541 0
-3377 -5892 -5549 0
175 6726 5584 0
-1416 -798 3720 0
8744 943 1885 0
-9313 186 585 0
3348 -4171 -3537 0
9850 -655 -8431 0
-8004 2123 3311 0
-369 42 -2633 0
6138 -8926 368 0
-4042 1405 -1853 0
-1609 -1369 3903 0
3922 -5605 -1272 0
-6772 -6645 -8109 0
5536 3973 -4650 0
-7109 -9962 9273 0
-5752 7445 -4468 0
-8331 -9800 1934 0
-8824 2573 -3596 0
-4639 -2574 -200 0
9588 -7191 5425 0
8990 -6297 2439 0
-7529 -4427 9792 0
-1906 -837 6258 0
-9647 8483 8559 0
-6689 -5217 6870 0
3285 -3183 -3366 0
1837 4367 9840 0
-2368 9666 4514 0
-2164 3033 2839 0
1352 7094 7605 0
8510 7853 -8190 0
-7292 -3566 3831 0
6980 3481 5622 0
-4338 5985 7288 0
-3955 1986 7109 0
3900 4048 -9793 0
-9850 9692 7298 0
-5996 7044 4864 0
1138 6768 -9475 0
8608 -7225 -7914 0
5224 -1713 4556 0
-2997 3063 5595 0
-6719 7234 -9630 0
-8104 -4849 5296 0
-6981 -1088 9036 0
173 4961 1545 0
3777 1295 427 0
7977 -8381 1516 0
-9068 7947 2800 0
-2839 -837 1266 0
-6179 -9489 5241 0
-364 -7289 -6881 0
1306 8938 4036 0
6061 -8287 -5899 0
4309 1260 1657 0
7109 6543 -5951 0
9437 -9590 4631 0
9775 -965 2449 0
-3153 -6204 -6878 0
509 8968 -1517 0
1487 1052 9241 0
-2384 -8117 498 0
6533 -8366 8970 0
-9339 961 3611 0
644 2819 -3794 0
4824 -1592 -6149 0
9330 -4651 4853 0
-3593 8886 -5575 0
9298 7926 -3749 0
628 -374 -8185 0
-5174 3873 6039 0
-6553 -834 8905 0
7660 1072 -1166 0
3693 7493 4160 0
8771 1207 2079 0
8889 7426 -664 0
-4180 -4316 -6044 0
-5364 -3966 -8821 0
-186 -8775 -896 0
-9277 5487 1742 0
6245 3847 -6323 0
-7612 -4419 -3524 0
5018 -8607 8807 0
-6151 -6032 9661 0
8652 -4860 1701 0
8399 3057 -9912 0
4020 7084 3584 0
-5111 9602 4890 0
-3420 3771 -577 0
-4934 -5218 1349 0
-1590 276 2114 0
-422 9022 7992 0
8728 1999 3937 0
5804 3607 -1343 0
-3832 2189 6284 0
3273 -2486 5298 0
-7707 -362 5453 0
1155 -4088 9134 0
-4958 -6981 -5674 0
8582 1523 3756 0
7797 7252 9643 0
-8180 -5025 9382 0
-7548 -3842 -6264 0
8804 -8732 8304 0
6797 7245 2854 0
9253 6582 9853 0
4313 2941 -6813 0
-2345 -7947 -9586 0
1851 2144 960 0
-3409 -6643 -7062 0
-8344 -2429 5124 0
3855 -3613 -4803 0
8921 -4420 -1048 0
8711 -6102 4619 0
-6849 -163 9154 0
-2124 -5553 1072 0
7025 -5417 8945 0
-6772 -6293 -7013 0
-1683 -5460 4928 0
9961 2693 4444 0
-7449 -6192 1978 0
1104 4974 -698 0
4062 -4744 5787 0
687 7063 -6166 0
363 3830 -606 0
-2491 -253 2160 0
-628 -9316 -920 0
8272 159 -8876 0
-139 4857 4175 0
860 -1099 7806 0
-8477 4739 -3896 0
-7271 2220 -2362 0
-4034 -4890 714 0
5533 3021 -3784 0
-8915 1488 5689 0
4593 -4914 -1480 0
-1011 -6660 -6614 0
4775 -7809 -6514 0
-8073 -7772 5214 0
-3586 5915 8765 0
-5675 -1955 9971 0
-5132 7390 8715 0
-7444 6787 9577 0
-610 5619 2765 0
6245 -5825 7414 0
-1756 -7662 4498 0
-2608 -8233 -8433 0
-2993 9808 -7174 0
2503 -7923 8350 0
-2642 9153 -8926 0
856 5519 5215 0
-3770 5211 -4375 0
-7281 7726 1999 0
-7993 5442 4834 0
-6578 2969 6216 0
6052 -6263 -3113 0
7335 8840 -4825 0
6049 510 7562 0
-115 9259 -6625 0
-9591 579 6012 0
-421 -9073 -5377 0
6742 -4708 6252 0
-3776 5393 4676 0
5985 7983 70 0
-6847 2939 2315 0
-1381 7118 223 0
-5080 -2901 7038 0
860 9237 -4443 0
2895 8825 -7256 0
1865 6507 916 0
6920 -9146 -2924 0
-7845 -5379 -5696 0
617 -3679 908 0
-3472 -5265 -6399 0
4299 -5698 -9858 0
-9044 -8165 -7933 0
8639 9373 3908 0
7253 -6460 9933 0
-8622 -9419 14 0
848 -8946 -1686 0
-9029 -2416 4709 0
-6878 3341 -2873 0
-301 9772 4747 0
-8456 9238 -8617 0
-2431 1990 9057 0
-7609 3529 -3420 0
1204 -4205 8892 0
-5892 -3180 8195 0
4748 -1650 6408 0
-963 9199 -8395 0
-8918 -6018 5806 0
-3629 3573 3579 0
6975 2571 -1689 0
-4368 9694 141 0
9722 8158 760 0
-6287 -9468 1805 0
-1335 177 6352 0
3876 -1519 37 0
6080 5303 -4642 0
-6506 -7242 -1350 0
-2752 2566 -9192 0
-1846 -7665 -5608 0
-1281 5657 6663 0
3655 -465 3209 0
-1053 -3659 -6922 0
86 3732 4137 0
-6913 1233 1603 0
-5076 7450 7869 0
9025 4878 -4066 0
5275 641 -145 0
-6881 5227 -4861 0
-9542 1353 -7904 0
-1387 6837 -4462 0
-9009 8393 8111 0
-6121 8969 4573 0
4586 7202 -8273 0
790 -572 5476 0
-116 1990 -9316 0
-7832 2725 -426 0
4847 3840 5527 0
7510 -7506 -126 0
-6874 5191 9721 0
-7944 5586 8016 0
-1628 818 -4904 0
-2781 -2834 7830 0
-5566 -6865 6211 0
-6637 2156 9795 0
-7826 9783 270 0
6161 4979 -932 0
3199 -6727 -1352 0
-7746 698 880 0
4409 -7045 -9270 0
2779 -7209 -3394 0
-7214 7966 -9372 0
7398 -4902 -6317 0
970 8778 -5370 0
2930 -8799 3164 0
-219 7692 -7683 0
3455 4233 -9472 0
-6192 6282 4247 0
-9115 4673 2062 0
-4377 -5058 -5144 0
3699 -2120 7717 0
-1886 1059 -4567 0
-3313 -6417 -8054 0
2555 8166 -6101 0
-5945 2408 -3988 0
-4534 7738 18 0
8648 6383 2257 0
-596 689 -8094 0
9662 4532 8334 0
-1700 376 -3109 0
-6290 -3541 4845 0
-7066 -9399 -5688 0
-748 -2412 -5112 0
7435 2569 -983 0
7547 -7651 -7978 0
7325 1594 -9043 0
-5612 -7735 -8832 0
-2397 -8875 -8549 0
-4466 6239 -7752 0
2192 6515 -5272 0
1715 6277 4143 0
-3834 7301 1970 0
-390 6679 -7403 0
3594 -9298 -9174 0
-7779 9199 -6917 0
-5424 -6789 6881 0
-1774 -9828 8656 0
8351 6942 8981 0
1520 5337 5357 0
874 1309 -2586 0
4719 9477 -7739 0
9524 -4158 -4239 0
-7292 450 -968 0
-6157 245 5548 0
-1884 9528 -337 0
5679 -8876 2278 0
7405 -8452 2960 0
-9767 3286 6374 0
9278 1995 -3633 0
-5471 -294 861 0
-2348 2190 1316 0
-813 315 3949 0
7878 -6572 3943 0
3738 3750 3123 0
1340 6985 -8855 0
106 599 895 0
3631 3773 -154 0
-6122 4399 3958 0
-9924 -7310 182 0
9307 -6379 -2016 0
-7976 -88 -3516 0
5585 -1818 587 0
-3520 3095 4193 0
2046 -6907 -3056 0
-1883 -6961 -1859 0
-2944 1896 9075 0
-8903 -7582 -5792 0
-1336 3469 4189 0
8471 -675 4209 0
3462 -53 -803 0
8235 -734 840 0
6775 2843 -1684 0
4332 3764 -5829 0
-6090 -4519 -6077 0
-3494 2328 -1015 0
713 5538 -6480 0
3809 6730 -1184 0
-1762 -6981 -839 0
-371 -5865 1684 0
753 2059 395 0
178 -2553 7549 0
-7094 9162 474 0
-6978 1783 -9894 0
219 4042 -1274 0
9254 -3389 -2735 0
-153 -6060 -1224 0
-10000 8007 7291 0
-5404 5747 6073 0
-8283 9355 5827 0
3144 2701 2880 0
-3472 5168 2124 0
-9472 -2728 -412 0
395 -7218 4347 0
-2869 569 -4326 0
1350 7170 7668 0
-9344 2173 -2073 0
-2076 -4525 7139 0
4551 -1808 -722 0
-2836 -1348 -8713 0
-4491 1344 8751 0
5635 6817 3601 0
-1260 -4653 -6773 0
2325 -9423 -2517 0
-5302 1258 -4225 0
-4318 1707 4290 0
2315 3187 -2381 0
-4083 635 705 0
8038 -4002 544 0
-5132 7068 6448 0
-9096 -7287 1674 0
-2242 -7683 4943 0
-6781 1918 7072 0
4378 497 6071 0
-882 2054 -5556 0
-6120 7527 -7126 0
-3208 4537 -4877 0
-9170 -7174 9473 0
-2485 -773 -4476 0
6035 -5507 -5719 0
1628 4651 2522 0
-1237 -2721 7621 0
-5292 -3535 2368 0
-411 1008 7939 0
2532 -4949 5865 0
7313 -4362 4424 0
-608 -9601 -4706 0
8546 -2486 -513 0
4418 -501 -3613 0
7387 -6054 8951 0
-8254 2944 3719 0
9228 4263 8097 0
-6767 7825 5541 0
-8879 -2178 -599 0
-1991 5181 3025 0
1946 -2133 2779 0
5924 4836 96 0
-9100 -8593 -7764 0
3354 943 3361 0
3481 -6655 2240 0
-9253 4073 3790 0
-6932 155 2308 0
-9637 -9764 -2347 0
-7696 2811 8761 0
-7322 4588 -6729 0
-4109 -2240 7447 0
8037 -2835 -8940 0
-1589 -8667 1059 0
9717 -2579 -8445 0
9813 -4208 -1164 0
5524 -1640 -2410 0
2563 8195 1354 0
-9339 1215 5571 0
-5105 -9041 3600 0
-3263 -4863 8606 0
-1470 6890 -663 0
7592 6937 8763 0
8259 8939 6711 0
3796 9645 -4053 0
-9641 -2827 7422 0
4207 -947 5621 0
-161 654 5428 0
5991 6286 -9811 0
-7122 -1286 -9919 0
3582 3478 -9687 0
-6594 2625 -514 0
-5566 -2962 -8336 0
-4822 7330 -975 0
-7032 -9458 -9267 0
-1156 2469 -5834 0
-7438 -8346 -819 0
1709 5014 -1785 0
-7876 -3538 403 0
9917 6570 1817 0
-8301 -1594 9007 0
1596 -6865 -6220 0
-2432 3169 6849 0
-1815 725 7659 0
3230 -8041 1888 0
-8097 -1273 6189 0
-4229 -8622 8022 0
1334 -325 7535 0
9259 16 -1771 0
3343 9310 -8221 0
-7002 -6993 -1401 0
-611 6225 -5657 0
-4730 9790 5299 0
9725 4831 5170 0
3346 829 789 0
8846 -5648 -230 0
9704 -8401 -5385 0
-8967 9071 4120 0
-2879 6480 -9019 0
-3068 -2028 -9319 0
-1758 7393 1475 0
519 -7045 882 0
-1911 -1467 -8908 0
7868 -874 -6425 0
-3363 -2216 9474 0
3198 -4001 -7158 0
-9027 4243 -9890 0
-9916 2370 7326 0
-4807 5415 -3786 0
7970 -1356 -164 0
-839 -1049 -3856 0
1777 4079 -4755 0
-2505 1610 -3903 0
-4858 3290 6649 0
7543 4042 4313 0
-8413 -5694 -978 0
137 8540 -8638 0
8295 -8302 7747 0
6558 -5424 6827 0
7563 -8585 -6464 0
-2023 725 7504 0
1795 2298 8695 0
2813 6618 -2494 0
-2136 -6646 -6688 0
-3962 -9468 -862 0
6409 -2333 -1986 0
3593 -7609 2144 0
-9086 -2894 5592 0
-6713 -8725 -382 0
-9559 9925 -8617 0
-2031 2922 -5423 0
8964 8239 -4520 0
-4638 5726 5561 0
-6141 6875 2136 0
4024 -7216 -2799 0
-2113 -7330 8082 0
-4094 -3051 -5037 0
-5130 6022 -7298 0
-4808 2728 6464 0
4572 -1781 -2606 0
7700 694 -7372 0
-7045 9956 -8692 0
7442 7773 -4606 0
-2024 -8233 5329 0
-2199 2551 -6827 0
5030 -4184 -9293 0
9464 -9675 2429 0
2595 -267 -6151 0
8824 2850 -7158 0
9971 -8077 -5132 0
-4683 7783 1923 0
9722 -2881 -9185 0
9383 -4925 -9629 0
-8505 -570 -1953 0
-7731 7061 1367 0
-3668 3956 7827 0
-5618 -4665 -5832 0
5521 6333 -1738 0
-1533 -1837 8131 0
-953 -2678 5785 0
-1898 6483 -118 0
-8133 6310 7869 0
5439 8610 5975 0
132 -8101 -2375 0
9913 -5843 -3665 0
8173 3313 734 0
-1172 -989 2790 0
-6490 -3110 7676 0
-6074 9233 9320 0
-8782 -4432 -1028 0
-3011 -3179 -8351 0
3242 2328 -1044 0
-9411 -3349 9391 0
-741 3348 -505 0
-7083 379 1397 0
9718 8362 -612 0
8416 -5384 6625 0
8437 4753 4997 0
-1426 1684 -563 0
8623 6520 8823 0
-9247 9531 9640 0
4832 6957 -2180 0
217 -652 3012 0
-3068 -2589 3150 0
5603 -4397 3169 0
-8758 -3484 -7227 0
-4762 -5676 -8513 0
-345 7871 6224 0
-6466 2332 3796 0
-3842 -3309 6791 0
-6592 2598 1329 0
5042 9799 8897 0
4936 8889 -7250 0
-978 7423 -6584 0
4451 -6066 -304 0
3449 -9193 -7340 0
-2960 6996 -6054 0
-3152 2837 -526 0
-2764 -9136 8227 0
3604 8911 -7352 0
-8271 -8192 3398 0
-2584 6473 3894 0
3968 -646 -5064 0
-3883 5326 9585 0
1987 5805 461 0
8592 1848 5847 0
6798 3884 -8419 0
-5219 9950 -2674 0
1297 -3134 -2156 0
-3319 -4272 3546 0
-9610 -9111 -3301 0
-896 -9907 -5107 0
-7555 3210 8464 0
8359 -6454 -7660 0
-9635 7528 4854 0
-8481 179 -7454 0
7939 2033 4634 0
1641 2655 -8669 0
-6244 -1468 -8409 0
-1869 -6430 4760 0
-9472 -361 -6334 0
3070 -4856 566 0
2580 4416 332 0
2706 2885 8110 0
-9770 5744 -3251 0
-7177 4033 965 0
2484 -3840 -4261 0
4342 586 9858 0
-746 4791 -4859 0
-5634 393 -8253 0
3130 9038 -6388 0
732 -4901 -2600 0
-4121 6664 8020 0
3711 388 -1542 0
-8468 5015 9937 0
608 -8240 431 0
8296 5793 9501 0
-7527 -9330 -1095 0
7582 9476 -3934 0
-3793 9227 -4811 0
-1743 6867 8325 0
-790 -7650 -1781 0
4709 7557 -3867 0
4945 -1287 -1898 0
3053 -9630 -6587 0
-6979 -2932 -6124 0
-9550 -6781 2167 0
1646 -3701 -9021 0
2581 -5714 -8685 0
31 -767 -1138 0
4672 7014 2573 0
-3535 -9117 -771 0
5973 -7696 -4730 0
-5007 -8612 9856 0
-2570 -8736 2684 0
5253 -206 -4839 0
-7594 -289 4377 0
5235 1671 -1171 0
8991 4807 4348 0
-5811 -3019 7373 0
-572 -4359 -8817 0
4313 8532 7530 0
4501 5321 -447 0
9677 -7853 -2261 0
3347 7569 -8869 0
-3420 -1249 -2673 0
-8502 9384 -7375 0
-2564 -8503 -1467 0
5059 -5031 4679 0
-9435 5677 5123 0
-5271 662 7102 0
5493 -4366 -6434 0
1462 1027 -7230 0
8295 -5428 -9976 0
9382 286 -4214 0
5306 -5415 -7793 0
-44 8558 -8816 0
4559 -5489 7144 0
415 -9165 -1289 0
9074 4299 1818 0
9623 -7501 -3209 0
9079 763 -1761 0
-3261 -3599 -4737 0
9375 4870 2377 0
-1912 2926 -9469 0
2021 -8216 1113 0
-6675 669 8991 0
5988 -1550 4575 0
1507 -3081 8452 0
4631 6096 2243 0
-4602 -1358 -245 0
-8523 -9444 -4461 0
-4165 -7772 8477 0
8155 1794 -8719 0
-6193 -9514 3049 0
-6010 2401 5203 0
-9038 199 -4261 0
4329 14 3734 0
-740 8905 3242 0
8125 2171 -4196 0
8655 -7328 -723 0
-2347 5715 5684 0
5702 -4484 8576 0
146 -2743 6930 0
1934 -2965 5276 0
3139 -4436 -1252 0
6685 -3864 -2134 0
4574 1430 -3121 0
-8971 -5931 2001 0
5144 3590 -9023 0
-6260 3034 5144 0
-2438 -1106 -9041 0
9435 -8066 8917 0
-6876 4191 3960 0
2695 -1077 8801 0
8747 -4530 -3655 0
2264 2957 6582 0
-8010 4078 9456 0
-4328 6134 -5041 0
-455 -238 -8145 0
-5823 7981 -6785 0
3561 -8855 -8244 0
-9766 7047 -7376 0
8262 9723 -1230 0
1851 2193 -3747 0
8562 -603 7631 0
-489 7912 4567 0
-5630 9803 6668 0
-9640 8291 -8157 0
6871 -9962 1863 0
6482 339 4721 0
-2676 2095 566 0
-4723 -9679 194 0
775 9989 8085 0
1254 7436 8029 0
6785 8630 8826 0
-8475 5202 -8954 0
-3106 -7464 -7453 0
-6313 2560 9207 0
305 5406 -7180 0
5893 9937 -6594 0
-9264 9984 9399 0
-8339 695 -8419 0
-4268 9561 -9793 0
-6346 3245 -2055 0
-5253 -9679 -7611 0
-4526 -7586 3648 0
1649 9819 -4061 0
6925 112 711 0
152 -5245 84 0
-7801 -5505 -2077 0
-1338 2997 -539 0
4605 -1982 -8365 0
8232 -3158 -690 0
4593 -4630 3991 0
2641 -8952 4265 0
3723 273 -4302 0
6471 3559 6930 0
-5902 -8639 2194 0
-8004 -986 -2373 0
3549 3988 -2933 0
-3810 -6936 2727 0
-3926 7653 2557 0
854 2218 6255 0
4407 319 7693 0
1928 2583 -4037 0
-593 -1140 -8530 0
-2494 222 7847 0
-9244 -404 5947 0
1314 8450 -2838 0
-7363 -559 1968 0
-917 7375 -3975 0
-9004 7532 -6477 0
-1604 9878 7562 0
-7580 -6435 7767 0
-8186 -9069 3612 0
6162 5371 -2334 0
8123 3077 9005 0
-8250 6809 -6746 0
-9632 -7329 659 0
875 -2769 9965 0
7458 -6636 -1574 0
-3613 1306 1076 0
-4176 6849 -8282 0
-1744 -311 -3942 0
-3385 5281 -8773 0
8699 9317 -7463 0
7232 -2022 -2916 0
-7606 350 197 0
2836 7800 3642 0
7756 -8796 7662 0
1936 -6791 306 0
-403 7783 2214 0
1460 -5979 -8765 0
5686 -5438 4476 0
-4388 8614 2392 0
7756 5311 5690 0
-730 3941 -6242 0
5424 -7163 -3647 0
-9333 -4658 -6170 0
8377 6956 5805 0
-6621 -4403 -391 0
1587 2101 7544 0
8918 2579 6644 0
7463 -8495 2484 0
-9520 5974 4056 0
6993 2285 6085 0
9327 4399 -3838 0
-2633 -3622 -4089 0
-9093 3279 -4592 0
-8580 -3541 7156 0
-619 1914 4137 0
-2627 -1908 541 0
1967 -9380 -945 0
-1122 -8332 -8766 0
9318 3646 -169 0
-5270 6129 -9809 0
-7838 6966 -6533 0
-636 -9892 -9808 0
-9068 2131 7750 0
-345 -9707 -6801 0
9438 -7281 -5658 0
-2480 -5810 89 0
6522 8262 -359 0
208 -4091 9162 0
-3241 -115 -8227 0
1908 7306 6039 0
-8529 8672 -5993 0
-5884 -6943 7758 0
-8154 -7262 -7910 0
-6443 -7872 -3289 0
8268 5599 -7478 0
806 -8138 -9983 0
5607 -2728 3089 0
-490 1481 -7245 0
-2540 -8254 4139 0
-8590 8023 -4273 0
-7783 -6883 5132 0
-8065 2782 1866 0
-3920 7700 6152 0
-7585 8620 -5874 0
4487 4445 -1013 0
7261 1775 9784 0
13 -1650 299 0
3894 -2339 8715 0
-9782 1995 1759 0
-7017 -9793 -6663 0
-4239 -352 -924 0
-4417 2325 5498 0
2529 9354 -4996 0
-6072 -6694 -3969 0
414 -7164 -855 0
-4772 -4128 -5344 0
9366 -1511 3422 0
-2145 -1663 -2355 0
770 -4025 9442 0
-4140 6631 6033 0
2754 7440 -6456 0
3151 -499 902 0
-8909 -2403 3784 0
-1690 8805 -6192 0
-7951 9941 -4594 0
7362 7562 844 0
-2629 5298 6975 0
2237 -358 1289 0
-2167 -2203 -8982 0
-9356 -7081 -435 0
-9015 1785 2889 0
-3962 6041 3589 0
-4860 4664 7083 0
2895 4993 8369 0
8554 9873 -7637 0
2603 7362 1494 0
6105 -3470 -8033 0
2919 -4256 1070 0
2694 4925 2820 0
2548 8638 -4154 0
-7403 -9391 -6604 0
-5040 -6650 3904 0
-786 -3530 -1003 0
-4819 -715 2048 0
2599 -5573 901 0
1887 -1697 1479 0
3595 8074 -525 0
5919 4050 -4904 0
7259 2256 5462 0
5898 -5790 3937 0
8170 -2017 -7987 0
-8814 3746 3441 0
1013 -1776 6614 0
-9792 1391 -980 0
2240 8939 -1651 0
3769 -9420 -2299 0
-5870 424 5121 0
-8954 -9212 -2791 0
-7538 -508 -790 0
2247 5843 -2104 0
703 -2850 -4766 0
4833 8138 7465 0
2273 -3467 4964 0
-3919 8233 -4530 0
-8161 -5656 7798 0
-3596 -1914 -1084 0
-6906 3609 5500 0
5989 -8787 -7354 0
776 622 2999 0
2553 -7115 -5371 0
9676 6223 -3352 0
-4536 -1755 7071 0
-2896 7389 -9678 0
-7769 -6500 5820 0
9831 7127 -7751 0
4990 -4210 -9613 0
-4285 -1469 7952 0
-8659 8542 1501 0
-615 -4034 -3912 0
-8841 -6615 -9204 0
1405 -4528 7277 0
4114 -7275 -2533 0
3064 -8354 9669 0
-6570 -6967 -3417 0
4256 -153 -276 0
85 4393 4486 0
-9595 9951 -5948 0
-1325 -2262 5560 0
-4187 480 -3838 0
1517 1950 -1125 0
9683 9028 -2434 0
-7981 8219 -1701 0
-7350 -8768 -9623 0
-9028 -3397 -9271 0
-8432 359 -2903 0
9739 1112 -4819 0
5192 -8117 -1006 0
7411 6231 7488 0
2108 8191 1026 0
844 -3154 519 0
-7539 5947 8042 0
9652 6135 8747 0
4688 2304 -8517 0
8835 7160 -1512 0
9723 -992 -8992 0
2628 -4104 -9363 0
7703 -6299 -4430 0
-3475 5161 8717 0
3412 -6640 9714 0
-5146 2737 1764 0
-1594 -8666 6504 0
9286 6798 -2416 0
-6018 -6120 3114 0
-4863 -9268 -6701 0
-349 -6706 6987 0
-2816 6336 -7579 0
-4344 9219 1615 0
-1816 5060 8007 0
-7160 2353 7456 0
-4143 -8963 -9108 0
7720 9235 5361 0
9629 7312 -6395 0
1734 7727 -7531 0
-707 4481 -9055 0
3438 3055 3966 0
-4113 -5496 2950 0
1319 8215 -7332 0
8482 -315 9949 0
8767 6990 -9815 0
-8190 -5455 4643 0
-5608 8985 7752 0
-6485 6818 4866 0
-6988 3361 5299 0
-7435 -1401 3841 0
3879 8024 -542 0
4601 4187 3400 0
7902 -8795 -4233 0
-9751 -5090 8143 0
7059 8225 -2274 0
-2571 -8122 6732 0
1482 5017 -603 0
5455 -737 4406 0
-1548 2809 3144 0
-6731 136 -3882 0
-1819 -4447 1376 0
8669 -1366 4869 0
1456 7797 9354 0
-1764 2398 2357 0
-7674 -977 1260 0
-7403 1093 4103 0
5025 -4147 -9371 0
7799 -6175 -9367 0
2426 5239 3125 0
-372 4553 7373 0
-7979 1612 8524 0
-9238 -1211 1428 0
3362 8678 176 0
-3419 2847 1741 0
-1028 1532 -9582 0
3773 -1050 6085 0
5453 3911 2029 0
-338 -1252 2923 0
2014 3217 2992 0
-5572 -9358 -7751 0
4558 -6620 -8886 0
892 3390 -1030 0
-3982 1631 -269 0
3327 -4163 7838 0
6760 4942 -6063 0
85 8055 7785 0
-6324 4828 6399 0
1087 8372 -9044 0
4342 1993 -2640 0
-9998 -359 -6900 0
4217 -5378 4674 0
2575 4117 3924 0
-1667 3125 3195 0
7214 8499 3064 0
-5000 5193 5769 0
6708 -5880 3329 0
-5556 -7675 6077 0
8190 6364 -5631 0
-4364 7024 6594 0
-5634 7863 4168 0
9973 -9334 -5757 0
-4179 8513 9006 0
9271 -7760 5839 0
3137 -2789 7551 0
3104 -5107 -5271 0
3358 4662 6165 0
-2754 -7408 8231 0
-5391 2917 6798 0
-3064 3747 7106 0
7145 -4626 -1684 0
7038 -3323 3949 0
-6532 3599 -645 0
-33 8075 6413 0
8819 8729 -6403 0
-4261 4778 -5903 0
1002 8275 2405 0
-2962 3341 2155 0
-78 -1785 2606 0
-453 -5569 4185 0
5535 5965 3306 0
-1323 -4751 -2145 0
-6234 -6501 7819 0
-1158 -9265 -8926 0
-2059 -9799 8899 0
8606 -7570 -8369 0
6921 -274 9331 0
7490 3646 3514 0
5 -2393 -8102 0
-8801 3052 -3479 0
8318 -8580 3670 0
605 -2532 3425 0
-3330 8454 6356 0
-6656 -7826 -3125 0
-7252 -891 -7447 0
-290 -6334 -8164 0
-464 -3451 2331 0
-3963 9334 -5189 0
-752 4332 4410 0
4211 -6775 3237 0
9635 8472 -8870 0
3800 -5978 -5501 0
-9432 -1503 -4874 0
-3309 3225 580 0
276 7245 7137 0
2707 3677 -8369 0
-4017 9741 8146 0
1048 7874 -6762 0
2549 -7324 210 0
9096 -2814 1420 0
1119 -1164 -6611 0
-257 6930 -7761 0
2045 -8897 543 0
2419 657 5008 0
-3081 54 5910 0
5105 -782 -7184 0
1797 351 1243 0
-4144 687 -9616 0
5093 -1444 -9850 0
-4556 2472 -3162 0
-9082 -2541 -8241 0
-4021 -131 -5468 0
-7374 4263 5381 0
-2081 606 -2162 0
6010 4558 -8404 0
-3993 -4488 -5530 0
3508 4305 726 0
-4047 -8763 3999 0
-6038 -2917 3859 0
745 -9017 -5963 0
4736 7642 -4482 0
-4487 1673 -5009 0
-909 6470 -9882 0
-8270 -4329 -1539 0
6389 -576 -1200 0
-309 -7443 -3049 0
5936 9748 -3294 0
-4606 4844 -3658 0
8186 -5721 -7042 0
-6187 -7236 -1407 0
-982 1537 -5277 0
2876 -6827 6230 0
-2399 8078 -4877 0
-2305 4830 -2530 0
9760 8890 8875 0
687 -9062 7610 0
-3897 7898 -7510 0
-6041 -8579 -3303 0
-8447 697 -8695 0
-5842 -5131 -7236 0
-3525 -1372 -6955 0
9168 4331 2422 0
3970 -8846 2847 0
-7244 6523 3496 0
8079 -5068 -8911 0
-8482 -3345 -6836 0
-4156 1866 8013 0
-689 4718 -970 0
1003 -2370 -5399 0
-4323 -9058 -9727 0
6965 2551 -7607 0
-1950 -7647 265 0
3442 2029 -3099 0
-6472 -8231 2991 0
9918 -1803 5514 0
9820 -1276 2458 0
-7732 -9955 -801 0
-5210 7618 -7052 0
5269 1951 -4593 0
6436 8866 -4552 0
-2143 -4348 -4111 0
2995 -1368 -8146 0
4500 -9983 -2769 0
-4301 5877 -9956 0
9018 776 7201 0
-7167 -6520 -4878 0
2450 5627 9939 0
-6804 -8941 -1157 0
-7198 6248 -7137 0
-9793 433 -4032 0
-2001 6774 3901 0
3931 3595 -9281 0
3856 3398 -804 0
-5022 -2984 -4308 0
7203 1424 141 0
-9124 4785 5287 0
9486 -5863 3245 0
9955 -9402 -9383 0
-7766 -4155 -4082 0
7693 3994 -4755 0
7307 -292 -3658 0
867 6026 -3914 0
-878 -6635 -3145 0
-2689 -2895 -9383 0
3702 -2311 -9660 0
2382 -1648 8127 0
3801 4899 6367 0
-3679 1412 6088 0
-1191 -2799 3605 0
7696 617 276 0
-6018 -1672 -1853 0
2562 5549 -7593 0
424 8484 2666 0
-4725 -1746 299 0
-5572 6703 2779 0
1127 -2449 -2976 0
4886 -2614 6507 0
8624 -4622 -2040 0
1480 677 -7724 0
372 -6692 -7209 0
-7452 8144 5064 0
-8144 1206 -2093 0
-2272 1728 253 0
-8378 -4727 4231 0
8769 7711 -1301 0
-5695 5942 3917 0
9668 -3040 4728 0
-7348 1444 8420 0
-4234 8189 -425 0
-998 -4671 -5473 0
3196 -1914 -1966 0
8122 9755 5997 0
-9911 2898 -2387 0
6853 8385 -9535 0
9403 -2053 7347 0
-8547 676 -8494 0
1418 6833 -6093 0
9437 -5331 -1028 0
7408 -4710 -8937 0
-5024 -9417 -8213 0
8139 9038 -5010 0
-6869 -6718 -7855 0
-672 1677 125 0
1419 3560 -741 0
-6667 -5295 -529 0
-6559 -2541 -2609 0
9883 -908 7362 0
-4855 2324 9630 0
8204 -841 1978 0
-9742 1874 -8854 0
-9577 -1896 2987 0
2867 6010 4749 0
-1545 -1983 -7026 0
-2353 9034 9578 0
-8651 6014 9679 0
-4024 -6485 7905 0
8196 671 -2829 0
-9552 7577 7220 0
-5987 2719 7064 0
9452 1921 -7118 0
-983 -163 6675 0
3139 -5765 -3422 0
-1027 -9415 -3245 0
1175 3851 544 0
5328 -7814 -1674 0
-7052 9023 -2119 0
7893 -640 9752 0
1519 -4585 -2563 0
-2075 9537 -6420 0
9371 -6655 977 0
-1725 -6903 -3583 0
-6096 -857 -8342 0
1702 -243 8639 0
7676 7902 1653 0
-8391 1708 5438 0
254 -9258 597 0
-2850 -3019 -9778 0
8750 5134 4639 0
-7221 7486 -5462 0
-5399 -8770 -6533 0
4506 6091 -6758 0
-2677 8685 9663 0
-9589 7196 4960 0
-7604 -2485 1548 0
-4449 9936 8175 0
6018 -9123 -8090 0
-5951 -3727 -6944 0
4452 -5011 5664 0
-9678 -5543 -5856 0
-9979 -902 8868 0
-6376 8520 -6492 0
-6390 -8839 7407 0
-2240 -1344 -2628 0
-6547 -4733 -3440 0
-5541 8489 -9987 0
6011 3017 -43 0
-4805 -5944 4094 0
-4605 -7223 2274 0
-6593 -1433 -3821 0
5807 -8034 -851 0
4345 5298 735 0
-1981 -2455 -5631 0
130 -7885 -3739 0
-9287 7232 184 0
-8857 3653 -9779 0
5320 3043 4594 0
6358 5141 -1403 0
-4409 -7538 -6991 0
9377 570 9015 0
-3425 -8678 -9563 0
5392 8161 -9786 0
-8137 -9367 -638 0
5740 5255 -104 0
3436 -9707 -5301 0
6912 2241 9453 0
-5343 -8123 8677 0
6106 -7022 4003 0
2575 7172 4840 0
2189 -6628 -4658 0
9233 -9354 9198 0
9722 3289 -1068 0
9188 4957 4718 0
-544 -625 4982 0
-384 5177 7812 0
-8084 42 -6566 0
-9628 -5882 -6147 0
5191 4313 7967 0
5928 2737 -2022 0
6752 -362 -9900 0
2467 -6660 5509 0
2931 515 8757 0
4239 -8911 -7618 0
5124 8260 3059 0
223 4 -2909 0
-9638 2284 -6973 0
6211 -8789 5708 0
5306 7924 -8006 0
-8201 1075 -5389 0
1327 1114 -6194 0
-6694 7592 8193 0
-7209 2070 -3015 0
-5822 -4582 4236 0
-3771 3608 1628 0
7611 3126 8429 0
8521 8735 6304 0
-1812 3584 -1906 0
-6172 9111 6567 0
-6415 4142 2045 0
1799 2179 -589 0
-3737 -4817 6194 0
-9634 4428 2802 0
1513 3599 -1181 0
2869 3477 -8425 0
2204 2554 3587 0
8220 7086 -5025 0
-1450 -4273 1555 0
9650 8840 -3630 0
2645 -2746 -7293 0
-4564 -3249 8440 0
-3161 -6767 -7722 0
-2569 929 6955 0
7383 1360 -8950 0
-2681 -2723 -726 0
1766 4401 -1964 0
-9964 3207 6970 0
5368 -1709 5633 0
-1693 -8065 5234 0
-9728 2011 355 0
-4234 9198 -8709 0
5920 5321 -6715 0
-2541 4537 -4431 0
5997 4902 -4565 0
312 -8326 3012 0
-2357 -3738 6376 0
844 -4072 -4583 0
8129 5381 -7193 0
4052 4621 -2993 0
6106 -5368 1010 0
6374 -9054 -1843 0
-3285 -797 -2866 0
-6597 -7739 4172 0
-7189 9858 5188 0
6221 3223 3512 0
1433 4926 -4855 0
955 -6909 -1892 0
9353 -7574 6533 0
-7357 -4116 4632 0
9846 5634 -2634 0
9520 5062 280 0
-3053 -1262 3985 0
-6563 2077 5606 0
5241 -2534 3160 0
3260 -4652 -2646 0
3469 5076 -2861 0
1930 -2203 -2379 0
3271 -952 -945 0
8287 -9282 8834 0
7172 8618 -5401 0
5552 6064 -4240 0
-835 -6733 3085 0
667 -2060 1276 0
-6013 4756 8122 0
-7448 1550 9155 0
-7352 -3336 2330 0
6456 9897 1171 0
-6314 5917 616 0
-6408 7498 8227 0
2959 -990 -39 0
-9221 1118 7858 0
-4856 -979 -7983 0
-4558 -6041 8989 0
-2820 -5321 4675 0
-7614 -8770 2001 0
9780 9304 -3503 0
4951 -4947 -8931 0
7228 -9976 -8813 0
-9389 2733 -2652 0
2702 6351 8080 0
-7278 2023 6579 0
2839 4305 -4203 0
-3740 7723 4889 0
-2496 -6949 -9798 0
-6789 1834 -7454 0
-9445 -596 7745 0
-976 -1753 -2915 0
-1636 -4511 5546 0
3667 -438 -1262 0
5670 248 1906 0
2953 6814 -3669 0
-1510 5705 2718 0
5872 -2539 4746 0
-8942 8095 -2581 0
-5088 -7819 271 0
-216 2080 5227 0
-8546 -3021 -7382 0
6972 -2268 -7487 0
4104 -5291 -6351 0
4649 -7020 -3135 0
2706 -8638 -7208 0
6976 8374 3395 0
-3361 2780 9337 0
2399 -7229 -6044 0
-4826 -4734 -4504 0
-1538 8747 -8240 0
9622 6081 8495 0
1222 3396 8688 0
609 2011 -1103 0
970 -3477 -4056 0
935 1332 5671 0
-5176 -9178 -2688 0
3528 -9617 7906 0
-239 3540 9550 0
1272 -6035 -5243 0
9351 9838 -33 0
4425 -6791 6677 0
9449 -5439 5153 0
4490 9520 -9449 0
534 9931 7592 0
-5324 843 8071 0
3197 -3032 -6720 0
3607 4102 -1499 0
582 7043 9213 0
4265 -5796 -458 0
-6214 -774 7398 0
9426 -5951 7994 0
-6121 -7784 -6034 0
-8549 -7226 4762 0
6871 -6191 -7073 0
-794 3267 -2761 0
-639 7397 4620 0
9746 -6597 -8308 0
-7062 -6662 6785 0
4315 2671 -1245 0
1304 -4336 2087 0
-3867 -5014 -9201 0
5685 -4743 -8061 0
2178 -8176 9675 0
1733 -5980 -7261 0
-161 -9375 -3671 0
7302 2014 -3987 0
-3205 -1009 -1248 0
1421 3858 7744 0
-50 -912 -2244 0
4167 -9431 7043 0
-897 -5050 -5576 0
1575 -4720 -8761 0
-2033 8449 9873 0
-2789 2245 7899 0
6104 -945 -4905 0
6027 7549 -8580 0
481 3544 -2288 0
-8890 9991 -2518 0
2265 -7280 -2283 0
2194 -9828 9105 0
-9497 9268 -6550 0
-3006 -6284 -9955 0
-4330 7610 -5807 0
-551 95 7291 0
-5658 -6051 -1875 0
-1196 7159 8725 0
-4662 2669 8019 0
3645 -210 2364 0
4946 5426 1817 0
-8650 1858 -3803 0
-1273 8394 465 0
-1618 -8545 9330 0
-3380 -977 -235 0
-9944 3830 -1459 0
-8566 7191 2779 0
-8893 3427 9975 0
5501 9478 7209 0
-9465 -8869 4791 0
-989 -1190 -4679 0
6545 -7146 -6073 0
-3097 2559 -1762 0
6301 -8002 -719 0
3587 -2966 8213 0
-4804 9613 -7540 0
5103 -4268 -4176 0
-2122 3615 1270 0
4480 -6955 5143 0
8328 -53 480 0
7374 -4510 -280 0
8734 6797 8118 0
-4013 2296 -7412 0
8126 -6495 -1379 0
-766 7224 8870 0
-5410 -2890 -3701 0
9135 8089 8879 0
-1545 -9863 -5489 0
-1393 4923 9100 0
16 -9492 -668 0
4507 5241 -5238 0
-9094 7123 -5467 0
8964 6900 -7638 0
8792 -6255 -7495 0
86 5984 2846 0
-6073 6736 -5421 0
3308 9841 -4961 0
8860 2689 -5960 0
5805 -1754 -9314 0
306 5753 4491 0
5415 7192 6077 0
2215 4574 -1409 0
3602 -4745 5609 0
-8195 650 326 0
3621 -1080 7689 0
-5155 9634 -904 0
5555 -9173 9678 0
-2606 -7177 -6980 0
-5137 -2141 226 0
-4426 -830 4549 0
-4196 -4833 -1119 0
-4083 -9835 8142 0
-1433 -5333 4116 0
8222 -376 6631 0
2271 503 2799 0
-9126 265 6918 0
-4359 947 7312 0
-6740 -5390 -5005 0
-925 8432 9620 0
-4829 -9510 2583 0
-9572 -956 8281 0
6239 -5553 -5080 0
-3965 3573 -589 0
-1306 -8849 3499 0
-772 -1397 -2517 0
-1764 4574 3531 0
-3269 -5597 337 0
1022 -1869 -683 0
2637 250 -3042 0
1230 -9045 9150 0
-3152 1595 -4386 0
-7937 9996 1436 0
5286 6505 759 0
1732 3721 -3316 0
-8045 2015 2942 0
6939 1868 -754 0
8050 8378 -1555 0
-4407 566 2152 0
2548 -6548 933 0
-8378 -9670 -3529 0
-7119 9605 6565 0
-754 6110 1107 0
7466 -7757 2440 0
-3501 -1884 7840 0
6499 -1641 -8011 0
-5595 -1692 -539 0
-1081 -6790 8739 0
-6473 -280 8419 0
1817 768 -6776 0
6014 -2866 -2086 0
-5072 1781 -3127 0
9027 -2153 8382 0
-9944 -2333 6960 0
6504 3470 8369 0
162 -9316 -5331 0
3370 3896 5646 0
5196 7197 893 0
-6341 -3596 -5629 0
4173 -9461 2796 0
9158 -5672 6126 0
-6109 771 4620 0
-8599 -9375 8043 0
6978 -7267 -5953 0
-1661 12 977 0
1875 -805 -5808 0
-8119 -2489 3932 0
8751 -1884 1218 0
2114 5960 -539 0
7667 9194 2921 0
-6775 6698 -367 0
-2512 991 3228 0
-1377 4461 -5251 0
7477 2105 8496 0
6470 -4479 -6752 0
5682 4464 9045 0
-4448 -1013 5675 0
1508 -9910 3242 0
-4825 -6001 -7410 0
6071 -4360 3237 0
-4638 6613 3459 0
1963 -512 9472 0
-5074 -7162 -7412 0
2818 2532 9196 0
7101 -8568 997 0
9033 -5268 6931 0
-1300 8188 -3976 0
8647 -846 2515 0
6701 -989 -3227 0
-8652 -8495 -1418 0
5083 584 6089 0
-7587 -4105 1229 0
-9558 8604 -4037 0
-7191 -8079 -8374 0
6886 -6398 7753 0
9616 -2979 -2417 0
7544 3831 7621 0
-1794 -5699 -8394 0
286 -1481 -2233 0
345 8584 -835 0
-4897 7024 8354 0
980 -9675 -7929 0
-212 8752 -6105 0
1254 5924 9761 0
-7649 -8625 -288 0
9661 2416 8903 0
-5315 7402 -9019 0
-6277 -4068 7817 0
4310 3745 5106 0
4783 9084 4991 0
-1033 -7173 -4689 0
1750 -9427 3037 0
-1902 -3939 869 0
-8092 3060 -4932 0
-5844 4393 6261 0
2731 7344 7359 0
-6637 -8026 -6287 0
3378 7482 -4821 0
-4841 -2170 109 0
2820 -8026 6667 0
815 -7439 8178 0
-7820 3853 5581 0
-8371 1964 -5772 0
-5013 3767 5557 0
6728 9063 6410 0
8863 -4837 4242 0
-2098 4643 -2990 0
437 -8497 -3139 0
-1233 -9282 -8334 0
6178 -1904 -1216 0
-6570 5871 1492 0
-3104 6492 -7392 0
6699 -2728 -6587 0
-2940 6480 -570 0
4745 2763 1143 0
-4892 3189 6899 0
-4169 -9999 -5203 0
6754 4557 6537 0
-4609 7019 -1753 0
-3966 1152 5663 0
-6399 -2541 -3401 0
-6718 -4572 -7325 0
-3889 -9496 243 0
9629 6807 -5735 0
6308 2513 -2204 0
2719 8704 -1830 0
-2012 8404 6962 0
-9498 9117 -4139 0
-7182 9293 8916 0
8811 1422 5102 0
-5255 -5074 -4222 0
8905 -6555 -9605 0
-74 -2058 -3080 0
-4309 -4079 5923 0
6848 4416 -5768 0
1069 -809 6723 0
361 1167 2957 0
8096 9109 796 0
2481 -1560 -1838 0
-8216 8242 -7529 0
-6260 8225 -9193 0
-5301 -9149 5932 0
4649 2018 -2338 0
6641 -6289 -8776 0
-1475 6732 -4777 0
-4659 -6131 -9367 0
-1193 -5606 -25 0
336 -4499 -3907 0
-7444 883 -1608 0
-4470 -8892 -1371 0
4190 5652 7045 0
-1628 -3411 1215 0
1538 -3409 9635 0
-3355 -2528 -7648 0
-1654 -2515 -8555 0
4874 9109 -4006 0
-8799 -5850 -4943 0
-875 7067 -6561 0
-5001 8873 5168 0
-8925 -299 -3122 0
-4443 7993 -6907 0
-9963 -5961 3569 0
-2508 1647 5928 0
-8096 -2280 6747 0
7114 9044 2807 0
-7503 -3496 6715 0
7722 -1553 -473 0
-6012 6149 -9128 0
6571 4776 4434 0
-9496 -211 8027 0
-5081 7486 3138 0
-4265 -2187 6820 0
6094 -8134 668 0
-511 -1825 4096 0
-8775 -5212 699 0
-7449 -9866 6449 0
-3034 6977 -3188 0
7925 4892 -3591 0
-1086 -4708 8117 0
-1758 -1604 -1359 0
8314 5543 5319 0
-6888 -6355 -7259 0
-9932 9827 -6737 0
7416 9278 1480 0
9241 -7501 -2389 0
-5502 -4473 357 0
496 8306 -4771 0
9322 -3989 6106 0
-5134 8389 2764 0
-3851 238 -2540 0
-1334 -4832 -8772 0
-7809 6207 -5837 0
-5263 251 -9796 0
7712 7231 -1163 0
396 9192 201 0
-287 4126 6415 0
379 5627 -3587 0
-9766 9093 3834 0
2066 3519 8700 0
-3208 -2250 2602 0
-2455 7584 -905 0
-8952 3753 9108 0
-3422 -6515 -3641 0
-6520 5101 -6895 0
6025 9803 4776 0
-1271 -5062 8860 0
2874 -3405 -271 0
-2834 9536 2958 0
-5255 -9235 1688 0
-7351 9490 -6523 0
7307 -8775 83 0
1109 -5500 -2021 0
-9042 3460 -7244 0
-3464 -974 3826 0
-3517 1461 -9096 0
939 3020 -5292 0
-4482 6863 6553 0
9687 -7233 529 0
-908 9469 1521 0
-7241 -2447 -3410 0
-9736 -4659 -80 0
1419 -4140 -5909 0
-7087 7573 -9662 0
256 9633 -6060 0
3056 3214 -3535 0
8498 9709 -4790 0
3182 -4877 -5830 0
127 -6907 7119 0
7057 -9400 8934 0
-5075 -4348 6321 0
3221 5058 8613 0
-4555 6502 7626 0
-5287 8490 -4482 0
-2818 3230 -5858 0
-4879 -4851 -6567 0
272 -6691 -3806 0
-9834 -4102 -4340 0
-3185 3367 4560 0
8245 5294 -7133 0
1959 -7190 -6954 0
3100 -8086 -4773 0
-4845 -5401 8820 0
-5268 -8533 8977 0
3451 -4417 -3005 0
7350 6902 8569 0
7935 5870 4340 0
2526 8123 1166 0
1615 1520 1267 0
-1585 -2132 5705 0
-613 2445 -4746 0
9092 9208 -9310 0
-3504 -2465 4660 0
6559 -5557 -2857 0
-9695 -2935 -842 0
7408 2784 607 0
-3368 2313 356 0
-1987 4532 -5309 0
4114 783 3805 0
3988 8295 1612 0
-9208 -7082 -3457 0
-7005 4933 -8913 0
5565 9545 -9299 0
-2888 6438 1023 0
679 7507 -9479 0
1505 -8947 -1533 0
8245 -1693 -1838 0
-9562 -9347 -9339 0
-4475 -412 -8270 0
-4892 1230 -9682 0
3891 -9923 4015 0
1498 -940 -3915 0
9453 6611 -4437 0
-9917 3736 7378 0
2735 1768 -8028 0
1862 -5345 -2384 0
-5619 -7171 -8555 0
7746 5371 3312 0
-1221 1239 3762 0
-124 4001 6746 0
-1427 -1789 -9652 0
127 1312 6210 0
-9219 5921 -5288 0
5091 -4582 6623 0
3808 -1362 2447 0
9818 798 4934 0
-6650 -5815 -9215 0
1859 825 1826 0
-8457 -4725 -3494 0
6371 4914 -2945 0
-3021 -8653 -9611 0
3586 1162 4426 0
6328 1086 -9521 0
3140 -1287 184 0
7997 8455 408 0
-4867 -8363 7676 0
6666 8320 -6660 0
-1370 7943 -1246 0
-5467 1636 7398 0
-4932 6187 6049 0
-8576 6151 -7294 0
-4968 5489 5835 0
-2557 -9442 1118 0
-9591 4604 4421 0
-3588 4199 5666 0
-1425 -7844 6146 0
-4651 -4941 -5689 0
1353 -9930 9187 0
-5111 7514 -6371 0
3760 3042 -7218 0
-3382 1664 -348 0
-9952 4091 -8476 0
9969 -3448 -9851 0
-3382 5105 9223 0
1860 -2934 -4097 0
6477 3919 69 0
7052 -4236 3309 0
-3637 5775 9562 0
6318 6982 9819 0
163 -8235 9396 0
4480 -6608 8493 0
9609 -9140 225 0
7411 -294 -8324 0
6637 3462 3158 0
-6843 -9528 5786 0
-6702 -8407 -4069 0
-733 -4044 4202 0
9900 7354 5094 0
-8106 -3841 -5462 0
-4281 2076 590 0
825 -907 -5336 0
1744 -5587 5118 0
3964 197 -2008 0
2356 7917 6396 0
-7749 9062 -7585 0
-8110 -4254 -7229 0
-3875 -8692 3496 0
-6062 553 7991 0
-1722 6505 -4540 0
-8344 -900 -2619 0
147 6718 3854 0
1241 -1047 9264 0
-6181 6082 -5917 0
-5082 5797 1188 0
6642 9549 -5557 0
-4206 5064 584 0
8158 276 -8856 0
-6957 -5594 3391 0
-10 -8882 -9956 0
-8983 1602 6131 0
6041 -6873 2500 0
-7310 7106 -4005 0
8652 -4412 2284 0
-3777 7044 -305 0
-34 9462 -5849 0
9800 2165 -9620 0
9965 -4653 1053 0
-8198 438 -7103 0
3901 -773 -8484 0
-9132 -689 -4557 0
-5692 7995 4563 0
-7119 4481 -8598 0
1285 3501 -4914 0
2087 -940 7600 0
-2579 4147 -132 0
34 8421 5225 0
-1545 1670 3416 0
-5243 -7230 1495 0
-3729 8298 3809 0
4658 3790 6397 0
8294 -6285 300 0
5625 -4563 -3886 0
4434 3909 6915 0
-4853 -5067 5785 0
-4331 7183 940 0
4650 3048 7906 0
-1620 -5100 4119 0
-5420 -3846 -4591 0
-7678 230 -2584 0
-4935 -2808 -493 0
-1077 -2323 7409 0
2616 -587 2128 0
-7623 9451 3996 0
1547 1313 -2862 0
-762 -4779 -5735 0
7497 7968 -9970 0
3465 5232 5135 0
-2660 -5816 -3994 0
-4033 -9556 -364 0
3189 2067 1914 0
-9441 -7933 6847 0
6567 3051 -2140 0
3987 6305 2653 0
3736 7414 -9123 0
-4894 6991 -3855 0
2836 -482 -5947 0
3425 815 -1488 0
-130 7688 5038 0
-3929 -2054 -339 0
-8343 6812 -9944 0
5459 5146 1672 0
-2508 -1084 3948 0
-7807 -9349 1130 0
8311 6934 3232 0
9380 821 -6986 0
4033 5171 5511 0
-1029 1970 597 0
5533 -8064 -8650 0
-7752 -8882 -1228 0
378 -8608 1880 0
9113 -9335 372 0
-6097 4942 -9100 0
-5982 727 -4365 0
-4373 4872 -1276 0
-8613 -4162 5451 0
-2930 5720 -8360 0
-1544 5227 -2997 0
-9994 -3266 -6973 0
5458 -4415 -8037 0
-4537 -7469 6843 0
-1315 632 -4712 0
2730 -8592 -2713 0
5679 -4610 7135 0
-2519 5233 2086 0
-7358 3790 -5539 0
-672 4328 -5782 0
6517 6640 -8306 0
-509 3307 7142 0
9010 1487 1851 0
-7225 -6985 -6036 0
3958 -9185 8187 0
3603 -8134 -6532 0
3993 6274 -9301 0
-522 -3562 -8854 0
9715 -4500 2836 0
3646 -366 5587 0
1396 -6155 -8110 0
-9146 8823 -7146 0
7329 -2809 5021 0
9442 2839 -6232 0
8607 -3912 9984 0
5858 -6966 7757 0
3424 1905 -6583 0
1371 -1778 -7314 0
5793 5455 -5857 0
-5486 -5919 1489 0
-8161 -8714 -2353 0
2082 -3253 -4317 0
-9393 -5335 6283 0
-6779 -6489 -9835 0
2648 8894 -6494 0
1409 -8714 -3213 0
2962 -3214 4668 0
-7392 -8348 5732 0
-293 -4871 4158 0
-2880 3963 9151 0
-1573 2475 4650 0
4095 679 2986 0
-2922 1844 -7597 0
-4342 9847 -4853 0
-1423 -6817 4627 0
9710 3115 2039 0
4991 3585 -834 0
-1390 -9023 4426 0
4965 1472 -7769 0
-2783 -185 3526 0
-4214 -7334 9229 0
7829 -2205 153 0
7023 8334 -8384 0
-2424 8806 2823 0
3934 -2580 4425 0
-2467 9055 6864 0
-3682 5668 -3519 0
5122 2982 4710 0
-6263 3140 -8176 0
4565 -4998 4423 0
-3168 5123 735 0
-8375 3789 -5693 0
-7563 -4755 -3362 0
7928 -659 6038 0
2730 127 1046 0
51 3804 -4136 0
-4815 -4483 -1447 0
7640 -521 1274 0
7449 -5608 -5286 0
6227 7835 -7123 0
6984 7653 5861 0
-6497 8895 4604 0
-6099 4189 -5879 0
-5665 -67 9410 0
-5472 6862 -794 0
8750 1164 -1654 0
-5636 -908 -3428 0
-7633 -2441 4233 0
4570 7553 -7094 0
-2576 8647 5481 0
-4749 9333 -2955 0
-2376 5780 6594 0
-9102 550 5939 0
447 -7929 4421 0
2556 4912 -6925 0
-8227 -5945 4972 0
-3126 -8886 -9442 0
-36 6132 -5975 0
-5884 860 1148 0
9492 9085 6503 0
4438 329 -7880 0
-7793 -9883 -232 0
2773 -2647 -4869 0
-3696 2451 -8000 0
-1655 7489 7159 0
3398 -3377 -1454 0
-2072 -7547 -7823 0
4411 2312 -2624 0
7318 -9128 -9916 0
3115 1697 -1034 0
-5787 986 187 0
-7424 -8786 2487 0
4895 -3250 5706 0
3077 9038 1024 0
-4677 7959 -5754 0
4018 5982 8195 0
-1907 7994 5709 0
5032 -9026 8490 0
-3856 -1956 2775 0
1332 -3212 -8321 0
4670 -7565 -3436 0
7724 4310 -4724 0
9209 181 -8013 0
9107 -6454 -5020 0
-3058 4541 3645 0
8361 6578 -6595 0
-7485 8523 -6990 0
-9297 3286 5521 0
-9913 -7258 6383 0
-2328 -3460 -6794 0
989 -1890 -1854 0
7080 -4106 2504 0
-1801 -4601 -3201 0
-3904 -7145 7405 0
850 -1425 7416 0
1574 -2973 -5809 0
5394 24 7466 0
-6800 2407 3407 0
8836 -1257 -1755 0
2705 3433 6785 0
6651 2696 6835 0
-5027 -5769 -7956 0
-3022 -9100 3761 0
4971 -3407 -716 0
-9203 702 6613 0
1294 -2049 -4989 0
-4101 -947 -3179 0
8949 -3045 6877 0
-8346 -1289 8822 0
-6969 -2009 4778 0
-5693 3597 2518 0
-4302 9306 -5106 0
-2879 -2375 -7973 0
7100 9641 -4264 0
-2423 -6889 -2797 0
-1049 756 -5216 0
6609 -539 -2602 0
-1200 3822 -2046 0
3633 1346 -5043 0
-2722 -2140 5114 0
3146 -4682 -6284 0
4408 -2972 8138 0
-7714 -7969 -9937 0
3096 3263 -530 0
9017 -4688 6122 0
1709 -3052 -8570 0
1864 9742 -615 0
-4545 -9914 3864 0
7552 -8599 5491 0
993 -5377 9078 0
-7549 9777 -413 0
-4223 -1080 5751 0
-4586 7251 4015 0
4862 -8396 -9265 0
1946 5216 8620 0
-9066 6553 -1344 0
4599 1839 7109 0
-8700 1864 -2697 0
-8453 8268 -7182 0
97 -4457 3300 0
1556 -5822 -8960 0
-502 1564 4392 0
9827 -4040 1446 0
9362 5887 8904 0
-1935 -7905 -7368 0
7387 601 3193 0
3843 5756 -35 0
3441 -8641 8522 0
1830 -8054 8400 0
385 5445 -2384 0
8503 9943 -8754 0
6280 8200 3343 0
537 318 2676 0
-6911 -5794 -2753 0
-4500 5278 -822 0
-1428 -3784 -7480 0
1193 -9748 -6861 0
-161 -32 4414 0
831 -2820 -7736 0
3304 -9500 -6941 0
-6023 -832 928 0
-6418 -4325 -9422 0
3211 -1909 -4870 0
-7066 -3171 5420 0
-2977 7698 -9576 0
-4560 1157 3276 0
2592 7134 -9379 0
-3739 -7439 6282 0
-1962 9627 -3682 0
-3499 -9697 8189 0
-1480 6174 -9572 0
-8194 716 -3206 0
-6649 -9634 7340 0
-2354 8458 -7326 0
-8247 9160 -434 0
9870 -8180 1015 0
-6140 -243 -9083 0
1754 -4002 -4214 0
-2459 4009 -8187 0
1975 -349 7120 0
1120 -5375 -6390 0
-443 -9046 3424 0
-5998 8289 -6558 0
-2669 -3653 -8557 0
2617 -2294 7634 0
2783 -9521 -845 0
-3696 -3338 -5323 0
-9316 -5741 4054 0
-9834 -2183 7204 0
-9122 2324 9678 0
-3344 -182 6304 0
-493 2421 1378 0
8709 1677 -2155 0
-7123 6201 2865 0
-1392 4626 739 0
-3627 -6000 -7109 0
-191 -9942 6062 0
9041 1217 -7218 0
-8040 7095 -9376 0
1713 2268 -3969 0
7910 -8946 -5273 0
-1575 -8621 -9551 0
-2883 -904 2072 0
-5362 -9323 -1449 0
-4018 -3910 -8725 0
-9519 3818 -4779 0
-5997 974 -4293 0
-9572 -8200 -7396 0
8757 6097 -1129 0
4539 -8312 6998 0
-1951 -4099 -6216 0
8724 4991 -3595 0
9781 7648 2420 0
6450 -3082 -3483 0
131 2299 -6478 0
5329 2340 5749 0
-459 2645 -7216 0
-4283 -4581 -243 0
6111 -9034 -1394 0
5733 34 -7989 0
96 -9363 9722 0
3934 -2463 -1509 0
-5119 -952 -2276 0
7165 9739 -8615 0
1304 7055 -8074 0
6022 86 1605 0
-275 7906 6361 0
-3057 8185 475 0
5529 993 7529 0
6550 293 2931 0
-7804 6149 -7878 0
-6381 -1473 71 0
3423 6912 9072 0
-2782 417 -2858 0
-5566 -6037 -6200 0
-3862 -2637 1257 0
1975 -2298 -885 0
8159 5764 1384 0
8473 -6412 -4675 0
1885 -6460 7082 0
-4483 8344 6137 0
-7969 9922 -3099 0
-9716 -6349 -3109 0
-364 6580 -4348 0
-2457 -7159 -9278 0
7220 -7667 4722 0
8470 2477 3853 0
7965 -4355 9464 0
-3847 9708 4602 0
-1296 6557 3994 0
-4871 7428 8886 0
-6653 779 5004 0
-4445 -7457 7747 0
-1172 -8594 -6639 0
9714 -6742 1469 0
4729 393 8069 0
9938 -9498 9702 0
-3312 -2265 -7701 0
-8101 -3058 -4454 0
1207 2984 -4363 0
-1226 242 -1776 0
1964 5906 3168 0
6273 4761 6119 0
342 -2211 -9719 0
-6594 3085 -6274 0
-4931 -8898 -7436 0
-8166 -788 706 0
3517 -7528 7939 0
-5954 6540 3762 0
4275 -190 -583 0
-9953 -3671 4881 0
6586 5411 1896 0
6384 976 5899 0
-8101 2154 -3200 0
-9382 -8838 5200 0
6613 -3909 -9050 0
-5092 -652 -6074 0
-2217 -4812 -6840 0
4109 -8183 -6746 0
-6506 5017 -2606 0
3682 2368 -1037 0
9927 2372 4726 0
-9949 4021 9696 0
-4600 -4314 6379 0
4083 -973 5489 0
-8663 7754 7226 0
4796 4050 -5810 0
-3391 9259 -6295 0
-4721 3896 -7537 0
1744 -5739 -1136 0
-7293 3373 5089 0
-8429 -5256 4779 0
793 3226 84 0
1925 3153 -614 0
2565 -9939 -2105 0
-806 4451 8922 0
3086 5297 -5089 0
123 1287 -8904 0
-7714 -156 7668 0
-3002 8301 3858 0
-9078 -221 2239 0
297 -2939 -4395 0
-1934 4850 1504 0
-6286 6660 8472 0
304 768 -1680 0
-4795 -7367 9217 0
-9255 8770 6163 0
7758 151 4984 0
7588 7988 2615 0
-3099 -1088 2995 0
7020 8000 -5529 0
8259 -4448 -6358 0
6446 8207 6914 0
-7408 4224 -4479 0
-2939 -4875 6593 0
-26 3926 1006 0
-392 -3971 -1848 0
1537 -7012 -9898 0
-4897 -3459 -1974 0
-7530 2106 -2267 0
3973 -537 8536 0
9121 2495 1039 0
-2662 2960 3820 0
4513 3214 8111 0
-6897 7964 416 0
7804 -5 6734 0
-2175 -2813 -8655 0
1187 1321 4055 0
-1440 -3673 3985 0
-5721 -8609 -5141 0
8083 3471 -1807 0
1429 2 -6678 0
-1626 -1394 1582 0
-149 -1420 7449 0
3995 6541 5729 0
7151 -781 9196 0
-3264 -6214 -6465 0
-5397 7007 -8071 0
6850 -5547 -6656 0
1827 1389 6368 0
661 -4507 -9369 0
-8572 -2495 8376 0
745 -1694 7573 0
-6744 7939 7753 0
265 9988 -2386 0
-7183 -329 6463 0
3611 7213 -627 0
5502 -6042 8594 0
-5512 5046 5596 0
3188 -8146 -8160 0
-830 -3450 -3213 0
-361 -8888 -5268 0
-3759 -6584 4314 0
2060 -3842 -717 0
-4192 9811 1775 0
2057 835 5726 0
-9065 -8161 4336 0
-5673 -7011 5118 0
9955 3105 6277 0
-9595 -1954 -485 0
2842 1980 2139 0
-503 1482 -6558 0
-214 -5007 5291 0
1030 -5144 983 0
8464 461 -97 0
-4792 -9800 5133 0
2201 8446 2136 0
-2994 -7734 1945 0
-3580 1769 -5453 0
-8856 9355 532 0
9939 -4435 -1903 0
-6027 2175 2125 0
-2882 5197 4896 0
-3893 6958 -1983 0
-2924 5567 8694 0
1024 -7620 -8401 0
9318 -9376 8292 0
-399 3090 -2817 0
6208 9194 -6470 0
-3393 3671 4565 0
1796 -6858 -5660 0
2345 5410 -4443 0
-7317 -9709 4298 0
7397 2251 -5795 0
-2989 8901 2713 0
-1615 7534 9120 0
3318 2479 -6633 0
766 2787 -1934 0
8083 -8792 -3008 0
5480 -4287 7353 0
-8839 -5654 8578 0
6614 -7930 4186 0
-8340 4369 6923 0
-4763 558 3130 0
9627 -1648 -4521 0
6846 -8506 2853 0
4862 -4444 -3746 0
6866 -2964 2868 0
2369 -2012 -1554 0
109 -408 2128 0
5436 -1529 6613 0
7392 1385 345 0
74 9403 6958 0
4375 2086 5566 0
-8063 1344 6055 0
-7534 3642 7574 0
-8384 8796 -3040 0
1598 5948 -707 0
-4698 -6686 -3018 0
6223 8296 -4827 0
-7158 -1962 -8130 0
1406 -9398 -4193 0
-8361 -8015 -1261 0
-1862 -7615 5044 0
6905 2438 6153 0
3015 5107 8584 0
1814 4327 -1264 0
8486 3000 -7861 0
8099 1405 -4792 0
-3420 -8730 6351 0
-2995 -6116 9153 0
-9072 3136 -6192 0
7184 3649 -3822 0
-1145 1779 9144 0
-8052 -2986 8449 0
8274 6743 -116 0
-8871 -305 -5 0
7173 8804 3373 0
-7770 -90 -2372 0
2995 -1088 -456 0
9370 5832 -670 0
9229 7916 -503 0
-723 4522 1987 0
1302 3428 -768 0
1060 3943 -4628 0
-9129 -8539 -4427 0
8501 -693 -2508 0
9420 6858 6251 0
1805 5398 -7743 0
-5253 -7127 -9479 0
-5759 -9028 -9067 0
-358 4938 -3153 0
-6447 -3878 -1252 0
8107 5126 7697 0
-6757 -1342 -9427 0
4284 3800 2832 0
2537 5250 4865 0
-5159 7126 7366 0
-5697 9558 6097 0
2442 -4171 9856 0
-4244 4551 -5934 0
-343 4628 -8528 0
-7012 -3556 -896 0
-8167 1760 -1605 0
-1093 -6770 -9046 0
-4625 9063 -5613 0
-3661 -1795 439 0
9963 5786 -9828 0
-7347 -1532 1663 0
-8915 -406 6454 0
-416 -7541 -7221 0
-3495 -9043 -4296 0
-428 -768 -978 0
-8395 1618 4933 0
-5218 -324 -1351 0
3443 1143 -9088 0
6301 7335 3492 0
4685 4776 916 0
-1130 8030 -6807 0
-4872 -5132 843 0
1170 -3134 -3645 0
9582 8081 156 0
-6316 -8314 -9612 0
-6262 5979 268 0
-7817 -5285 4695 0
-7335 493 5774 0
2446 -7106 -3941 0
3067 5348 -403 0
-2031 4237 -229 0
1624 -4232 3977 0
-5378 -5018 -2376 0
9223 -9063 -4672 0
-8676 290 -4526 0
7865 -3330 6243 0
-1240 6626 -8788 0
-1006 9053 -3368 0
-1018 -1940 689 0
-8291 -2073 4437 0
-9255 -3470 8460 0
6849 -2965 -6311 0
-4542 -6762 -6889 0
-9553 -6405 -2668 0
13 -1057 -1951 0
-2366 -7545 9144 0
864 -4202 5288 0
3850 -5975 1545 0
-6209 -501 5717 0
1886 234 4941 0
2002 -4266 7647 0
6960 -6005 7182 0
-315 -8469 -6139 0
1348 3235 -2885 0
6381 4361 3073 0
1222 -9075 -6512 0
-4087 4838 7141 0
-3721 258 233 0
5128 -8014 5186 0
-4450 -9120 5847 0
1410 -8873 8044 0
-366 5181 -4699 0
153 -3140 6532 0
5993 -6745 3689 0
2958 -1654 -1030 0
-6530 -2131 -7847 0
-51 -4555 1010 0
-6671 7798 3792 0
-9905 -656 -4903 0
-2235 7609 2332 0
-4211 -1491 -629 0
-6569 -3531 -4874 0
-1552 8117 128 0
3509 -1138 -9610 0
4746 -833 -4741 0
-4586 -4330 -4633 0
9277 -9891 3346 0
-3380 2208 -2934 0
-5917 -9109 -1208 0
-518 9497 3994 0
-2197 -4419 3690 0
3538 2885 7995 0
-2664 620 3136 0
-2100 -5078 4744 0
2313 -7153 -3281 0
41 2280 -9757 0
-9034 2351 6820 0
8517 -8952 -2614 0
-2635 4818 1107 0
-2188 7550 4665 0
-3785 352 -986 0
3982 -1562 6633 0
-181 7556 -2684 0
-9909 4953 1439 0
7606 -5984 4122 0
9742 -4073 9211 0
-6287 2773 8704 0
-9167 445 -303 0
2052 6328 2954 0
4979 -6645 3337 0
-9622 -405 391 0
2907 774 1492 0
9979 -1319 8062 0
9909 -7616 2875 0
-1008 2889 -3291 0
-3804 1821 1987 0
-3526 9290 6210 0
7397 4627 -3276 0
-2615 -8829 -2550 0
8014 5764 -110 0
-4136 -9633 3769 0
7344 -6730 1027 0
-3664 4056 -271 0
7415 6897 2598 0
1774 5077 -7750 0
-2787 -5563 -5645 0
-2598 4182 -8307 0
-2860 8756 -3974 0
-3052 2724 -8984 0
782 4646 -4819 0
4333 3653 4979 0
3256 4419 243 0
7747 -8609 6730 0
-4257 -6109 2727 0
-5241 2041 1019 0
-8917 -1887 -8365 0
-9971 -4240 1267 0
9583 -557 -1079 0
-7563 8972 -6199 0
-9797 -9017 7658 0
3419 -7636 -6040 0
-9711 29 9977 0
1935 -5235 -4524 0
7726 7965 4392 0
3521 -5791 -2612 0
-2693 5078 7548 0
5300 -9841 -7936 0
5774 -9296 -564 0
8163 -6171 -6374 0
-3912 1265 -8137 0
5201 6873 7369 0
-2333 -1955 -8858 0
-3926 8264 3639 0
8666 5257 9915 0
-8153 -3879 4050 0
7438 -556 4476 0
-2547 4956 9472 0
-72 -523 -1665 0
5339 3842 -2140 0
4764 -400 -1388 0
5706 6319 -4011 0
-2353 -534 -6813 0
-1568 9246 7564 0
-3654 -8563 -7958 0
-1637 168 958 0
6796 -7302 -7508 0
-6188 -7473 -498 0
-4107 2588 2428 0
4282 7382 6243 0
-3003 -3248 -6852 0
64 -7000 9613 0
-4266 -4419 -9667 0
6165 -2925 -9153 0
2293 2014 5282 0
994 8867 -631 0
-4059 -5015 -6440 0
-3856 -7611 559 0
2946 -6153 -9233 0
4333 969 7884 0
9711 -5400 5763 0
-1985 1332 -4678 0
-9235 -566 -978 0
9589 -8055 6075 0
-8176 -4450 939 0
-2748 -2043 3852 0
-1119 1007 -6769 0
2030 -9375 8564 0
-7690 2948 -5127 0
-5984 1384 8528 0
-3676 -6413 -8939 0
683 -6766 -4362 0
6850 -3386 -2004 0
9635 797 -5566 0
7461 -3568 -7554 0
-7012 -4648 8544 0
4443 -2863 2510 0
-4244 -8682 -728 0
-1433 6117 -2632 0
-7964 -7396 -1340 0
-1767 -5609 1751 0
7767 9799 5352 0
2731 -825 6222 0
2292 760 -9115 0
7708 -8827 -472 0
-6143 1075 -3192 0
-4699 2681 9538 0
6725 -7184 -3552 0
-3159 -9067 5403 0
6631 3832 8868 0
-7543 3381 -1128 0
4545 -8275 -9689 0
3394 5047 7349 0
2679 9641 -4537 0
-4738 6187 -4837 0
-774 -3260 9408 0
-7212 -7111 9420 0
5846 -5757 5135 0
5381 -6189 -6064 0
-7223 -2664 -6219 0
4998 74 -9942 0
-3943 -2450 -5286 0
-7498 197 1183 0
-8540 8616 -3130 0
7437 -7080 3416 0
8294 -3479 -6204 0
1901 -6782 -8834 0
-8055 2322 8635 0
-9386 7688 6433 0
-397 2571 3128 0
-7053 -895 -7093 0
7929 929 -1917 0
-2712 1147 -1369 0
2744 5469 -3672 0
7506 931 3318 0
4782 425 5686 0
3587 9728 -3599 0
-1798 8272 -7639 0
-9177 8458 6061 0
4398 5930 -5741 0
3364 3388 -1994 0
7836 1414 3546 0
-3244 5005 -4969 0
364 3339 6586 0
-2052 1516 9850 0
-1476 -6262 -2706 0
148 9340 9530 0
-2756 -7348 7287 0
6766 3451 -582 0
-6632 9247 -4044 0
8499 -7704 3760 0
-625 -6058 7030 0
-343 -3583 -8947 0
-8104 -8594 -2662 0
-9116 3786 -5380 0
-2105 -6340 -8714 0
-4340 -8498 -7521 0
-667 7663 -9197 0
-9000 -6286 -4918 0
-474 -5652 5109 0
5584 -7198 8390 0
6702 -9422 -3977 0
6347 8364 4482 0
6322 -6720 -2852 0
1764 -217 -2153 0
4034 3095 6930 0
3445 5121 -592 0
-4387 -3291 -7994 0
-3513 78 23 0
9059 -5826 5429 0
1411 -4083 8487 0
184 -9659 -3782 0
-8015 5276 -5043 0
7789 990 5062 0
6463 2346 -2677 0
-5861 -7358 -3483 0
72 9221 8123 0
-4317 2212 9981 0
-623 -3362 -2116 0
-1660 -4501 8581 0
2101 -6541 -6600 0
3992 7444 -6656 0
313 -2725 -5812 0
6156 7132 7271 0
5289 7839 -21 0
5518 -2837 9128 0
4852 -1663 -7159 0
-8756 6988 -1765 0
-1017 9774 4673 0
-6680 949 -6856 0
-1750 6492 -2263 0
-6185 -3393 -8558 0
-3231 4820 2621 0
3473 -9394 -1030 0
-8982 9558 3018 0
3639 348 3389 0
8364 5039 4745 0
-373 -4226 -1304 0
-1383 9427 -6146 0
-6539 -2368 -9673 0
-8393 -7760 6383 0
7358 7373 4777 0
-7178 8818 2696 0
6107 -4276 -1251 0
-9374 4852 -3666 0
-9705 6093 8045 0
-183 -9226 -3024 0
3000 6232 -2712 0
-427 -9392 -9458 0
6482 6481 -9745 0
-954 -5236 7986 0
4431 9800 9188 0
5939 -3640 -4238 0
8777 -4912 4132 0
-1527 -788 -1105 0
1231 1104 -5389 0
-6213 9591 1020 0
2255 2705 -9483 0
-8249 -9389 -4207 0
-4761 1551 4430 0
6833 308 3633 0
-5786 1182 -7749 0
3482 -2253 2578 0
-1508 -4457 -8554 0
2424 9311 -3694 0
9903 -7342 619 0
8835 501 -2514 0
2397 -5138 -4096 0
1277 8813 -5040 0
-5496 -4305 -9920 0
-3410 -1752 9352 0
5525 1473 -5886 0
-4442 -9612 -8936 0
-5385 -5626 -6521 0
5113 -9281 -7700 0
9244 5905 -4643 0
6890 -813 -3165 0
9882 9780 6890 0
2457 3646 4683 0
8859 9737 8879 0
7716 1964 -8313 0
7200 3667 3607 0
5559 2289 8465 0
-9043 -2957 -7245 0
7855 -6045 1453 0
-8440 -1619 -8058 0
3072 9817 -1386 0
-6714 3895 -7451 0
2953 -9474 -9916 0
3729 8598 -4509 0
7555 4461 -5243 0
7012 3000 5220 0
-1190 -7822 -6421 0
3623 -2064 364 0
-6417 -7002 -1648 0
2763 -8236 -4473 0
-5355 9737 5927 0
6265 7959 -9687 0
3538 7958 -2900 0
2167 -6891 -6760 0
-1876 2580 -9721 0
7532 -5556 5023 0
-9831 1115 6321 0
8869 5892 1571 0
1356 7388 -2570 0
1285 -4136 -2036 0
-4430 -9800 -4307 0
1212 8175 -5725 0
-3289 2447 -5811 0
-3947 6711 6488 0
-3271 -7612 9983 0
-9749 -6874 -2030 0
8538 3919 193 0
-4571 -511 -2947 0
-6476 -4724 6590 0
8884 -5415 -9074 0
7374 -1080 -5595 0
7910 -9377 6091 0
4359 5725 -7459 0
6398 2290 9606 0
4967 -9677 -1182 0
-1457 1417 -8205 0
4137 -1782 4634 0
2069 -8192 -2673 0
6635 4898 -8370 0
-4717 9283 -9333 0
-3560 -3064 8399 0
-6963 -6241 -9407 0
-8292 -7942 2952 0
-8924 -8805 -4275 0
-8513 -5909 7467 0
-4673 -2487 3707 0
3301 41 7941 0
6417 3386 -3702 0
-7752 2067 -4666 0
9572 -8564 9793 0
-8604 2297 1613 0
479 4437 -4475 0
9497 8913 -3210 0
5458 -1225 -8870 0
7275 2043 -1666 0
4690 -4900 -7940 0
1564 -7336 -6431 0
-6451 5883 471 0
-1867 -6017 821 0
-916 -4341 2246 0
-6816 -9531 -3605 0
-1219 1987 -171 0
9658 -5368 -6795 0
898 7826 -3752 0
8595 4198 1475 0
9649 2357 473 0
-9144 -9598 -7114 0
-567 -5381 -3708 0
1971 -6097 -8481 0
3499 -2408 -6804 0
4401 446 -8735 0
4555 3967 8381 0
4771 1588 -4598 0
1822 1087 1324 0
7327 7476 -9928 0
4283 -5315 9479 0
6043 -7296 -3470 0
3525 -3620 4588 0
3105 468 5275 0
3098 7013 55 0
8450 3979 -3566 0
-2660 7513 -5499 0
3807 -3206 832 0
-3537 -4235 -5597 0
-6197 7818 -9492 0
-2774 -7269 8563 0
4317 -283 6963 0
-3757 1844 -3294 0
344 8284 -546 0
-3737 -7661 -7770 0
3356 5727 162 0
3510 -4301 -5829 0
6432 5096 4405 0
5200 -8396 -3428 0
3941 -7397 -8431 0
-4457 -5290 476 0
-4069 251 -2267 0
-2577 -6933 -9022 0
3262 3160 2214 0
4293 8035 21 0
9583 119 5428 0
9482 -1467 -2677 0
6234 -5094 6251 0
911 -2185 -3652 0
1125 -2770 8285 0
1240 8283 -7127 0
-9862 5636 -381 0
-3690 -5468 8941 0
1630 -287 -6894 0
-4342 1959 5668 0
1194 9052 -6933 0
8274 -5827 -8252 0
-6247 8757 -8450 0
6323 -3178 -8814 0
-9778 3666 5515 0
-739 -1038 -6896 0
-8197 -1664 -436 0
-3098 8113 -7924 0
826 4431 -4376 0
-9668 6748 -6953 0
-4972 2891 5031 0
-8243 -9242 6724 0
-819 -6220 3546 0
2499 -2210 6367 0
-1528 1155 -4524 0
6643 9205 2945 0
-5787 -1282 -1323 0
4110 7182 -5710 0
-1906 -8098 6288 0
7486 6561 -401 0
-3528 -3445 2069 0
-1209 9673 -1478 0
9710 6330 566 0
8843 3594 -625 0
3105 7034 6931 0
1109 7939 1091 0
869 8198 4762 0
-315 1065 -3541 0
-1031 4329 8987 0
-6083 6628 -2399 0
-1066 8966 -8156 0
-9144 -1347 -1382 0
6065 -8021 1541 0
4350 3622 6295 0
-4687 4685 8060 0
-7653 -195 7533 0
-5272 9982 -1083 0
-1352 6488 7449 0
-5236 2186 -8818 0
2241 -9883 5396 0
-6049 -2914 198 0
-497 6730 5378 0
7087 -4807 -6750 0
4646 6187 -4193 0
-9286 -8625 5113 0
-1560 -2551 -6389 0
-1533 -1354 -8613 0
-3277 -8187 4719 0
-3094 -5596 -9440 0
8194 3706 -6745 0
-3963 984 -7960 0
7918 -5052 9062 0
-8378 5159 -9864 0
4376 8138 6932 0
-1579 -9967 9843 0
5406 8388 8767 0
-6579 5166 5450 0
-7080 5141 7662 0
4292 -3754 6582 0
-5217 1359 -2465 0
4860 6037 -5924 0
9566 9088 -9473 0
3401 -3843 2478 0
-2240 1875 3867 0
8162 -9107 4868 0
-7453 -4830 -5556 0
1568 -2537 1853 0
-7475 -9560 -9552 0
2729 -3801 71 0
-5845 6291 -8108 0
3049 -6989 -6082 0
-8747 4527 9814 0
-5046 5023 -9751 0
-9726 2748 7044 0
-8733 4119 952 0
-3271 2551 2656 0
-4454 7314 -5876 0
-6647 -6984 -161 0
-5737 -4530 3200 0
-5242 -1229 2117 0
9685 8003 -2102 0
-7996 -8114 -8739 0
8509 9076 -4979 0
-1005 2589 3046 0
-5426 9863 28 0
-3203 978 7424 0
-3984 -7380 1708 0
-795 3761 179 0
4409 -2937 -3445 0
5951 3904 -4488 0
8772 1184 335 0
2043 9240 -5419 0
9681 3407 5558 0
-6455 -8274 -3283 0
2518 2157 -2084 0
1843 -5455 4392 0
-5894 2279 -9838 0
5929 619 5021 0
3323 -8219 -6823 0
7121 -3258 2877 0
-2 5231 605 0
7792 9167 5375 0
6823 -1417 -1759 0
-3746 -5546 3174 0
2110 3793 -4986 0
-5336 4321 150 0
5178 5848 415 0
-9915 -4478 7382 0
2135 -9818 -3431 0
-2522 -2969 6107 0
3176 7540 -5393 0
-900 -1607 223 0
9386 1095 8889 0
-8438 4491 -9562 0
466 9 -1842 0
9549 7274 -1769 0
-859 -416 -4698 0
-7225 -6750 7274 0
5656 -9272 8988 0
-4047 -1867 2743 0
1822 -9278 -9791 0
-5475 -5767 2329 0
2249 814 9972 0
3248 -7025 9846 0
-8165 -1723 8983 0
79 -2337 2985 0
1969 687 2030 0
-4708 1816 -528 0
-130 -4612 6311 0
6113 8056 717 0
-4866 -2417 -3735 0
3938 5923 3171 0
8735 -65 4547 0
9340 9456 -5964 0
-4290 9169 -7087 0
4366 522 4762 0
5411 2546 -8565 0
7693 -930 9348 0
-9457 8569 9592 0
2846 3349 1068 0
-8369 6297 5376 0
6861 574 -9172 0
3756 5471 2825 0
9989 3063 5507 0
-4579 5666 4796 0
-8597 -1999 -1407 0
-5878 1532 -2971 0
3126 5982 4784 0
-2855 4587 802 0
2922 -7458 -8077 0
8595 8475 9901 0
5643 -3049 -8039 0
7859 -3314 8288 0
8418 1120 467 0
-1536 -8122 5471 0
9202 2410 -2049 0
1546 -6189 -6654 0
3003 4923 3504 0
2300 2675 -5314 0
-9181 -7772 9700 0
3944 -2059 2433 0
8820 8220 1211 0
-7634 -3884 -7360 0
-4331 -2856 5579 0
8204 4390 1023 0
-4112 -8485 -1428 0
-5849 69 9980 0
5504 7638 -3829 0
9525 -5650 4885 0
5533 -7106 3499 0
-9075 -7704 -5666 0
-7985 7168 -8727 0
-2356 -9315 5188 0
8084 -8445 1808 0
-2913 -7893 8139 0
-9843 9857 -9571 0
4489 6642 -8721 0
7677 -1509 3000 0
-1748 6991 1073 0
9158 1516 804 0
-1916 7457 -9720 0
9501 -4114 804 0
5383 -3217 -2583 0
6460 -9764 1627 0
-5829 2705 -6593 0
5334 -6997 5888 0
-1622 591 -5830 0
-4330 9303 -3591 0
5684 -775 -5469 0
-8353 -6931 -4386 0
-5398 6190 -555 0
2168 -5899 -4095 0
1052 -4430 -7820 0
9799 -4200 -5376 0
4574 -913 -6016 0
-6358 -2730 -2696 0
3223 -7263 -2846 0
-1347 5179 173 0
-8360 -5216 6173 0
-6547 -1729 4638 0
-829 -8560 7281 0
5622 -6239 -3446 0
-4040 6569 2123 0
4173 7904 2015 0
389 -7097 3002 0
5836 -3343 -4697 0
1713 -8862 8145 0
1930 7605 828 0
-4212 3988 -8333 0
-1592 -6681 -5660 0
5897 -3296 -9602 0
4360 -3622 -1375 0
-2815 -7149 2235 0
-1643 6995 -6845 0
-8197 -1093 -2396 0
-3047 -5738 -9647 0
5523 1189 -5990 0
3262 -9214 5469 0
2656 -9620 8837 0
9734 -3152 2478 0
-4250 5529 8073 0
-8214 5737 -5767 0
9801 -4344 5552 0
-8941 -3315 7625 0
-4940 -9522 9119 0
-1258 1320 -8749 0
-7357 -2163 3221 0
8474 -6417 9331 0
2275 -9823 1453 0
-1573 4239 1042 0
812 -2570 4302 0
-2184 -3443 -3520 0
-2981 -1107 6469 0
9857 -3702 -5922 0
-1801 -5044 -3869 0
2225 -8130 -2211 0
4486 -190 -4724 0
-9971 -9763 7872 0
-409 -3404 -1840 0
-3429 8952 7559 0
4831 -2607 8467 0
-4028 -3698 -4356 0
8619 1761 -8457 0
-7001 6126 1269 0
1997 2942 -5406 0
-9262 -900 -6046 0
-4902 1837 7532 0
-6763 1789 809 0
8609 5372 1139 0
4771 -5007 -1355 0
-3474 7672 -8272 0
4843 -3690 6612 0
8556 -5933 -6834 0
-173 3579 489 0
3095 5995 2418 0
7773 6626 2537 0
-7775 2599 6430 0
2369 -3836 5178 0
5405 -3200 2561 0
-4928 5857 -7485 0
-8219 -4667 -3467 0
-1015 -5250 -4604 0
-3695 -9237 9097 0
-6829 8016 9078 0
-3267 -6980 2702 0
5315 -6763 -8596 0
-6722 -6261 4379 0
7745 -2999 -9263 0
-1964 9598 2139 0
3819 -5667 -3776 0
6374 -4858 -3265 0
4750 6193 3696 0
-9738 6248 -976 0
-1076 -3347 -1941 0
7491 9458 -1179 0
-2078 9717 -2277 0
8507 6703 -7540 0
-7609 -3266 5687 0
8555 -7967 9204 0
-6304 9058 -8841 0
-3262 7082 -8085 0
3115 9743 -3911 0
-2027 3997 6260 0
-2916 -3358 3752 0
8807 496 254 0
-410 -3689 -633 0
269 1871 -5614 0
-714 -891 512 0
6223 -9971 299 0
8821 -3506 -9892 0
8777 7072 -8221 0
-7758 -8960 -2580 0
4786 -8797 -1637 0
-9619 6038 -798 0
-2640 6455 -5922 0
2305 -7345 2170 0
6706 2640 7734 0
-8372 493 -6806 0
-2743 -5563 604 0
2752 -9398 -787 0
-4552 1491 -8508 0
7472 8346 -1360 0
-7947 6792 9752 0
-4795 8953 -5155 0
9633 -5942 2193 0
4031 -4373 -1998 0
-3547 6734 6478 0
9735 2146 -8153 0
1500 -3762 8429 0
-191 6926 2689 0
5922 4751 -859 0
-7406 -4902 4558 0
-4878 -9544 2784 0
9691 3303 -1331 0
-4465 -801 -6658 0
4248 3915 -3039 0
5917 -3680 7545 0
7348 5144 7703 0
96 4851 -3062 0
7303 -4487 6951 0
-3818 1080 -9251 0
-9228 -9178 -2435 0
8898 2246 7397 0
-4585 4894 9951 0
9955 -7611 4461 0
-3635 -9157 -912 0
-4177 -4122 -2305 0
-2428 -446 -2309 0
8938 -4762 7249 0
-1292 -8025 -5164 0
-660 4768 -6511 0
-9012 -5299 2877 0
-9030 7649 -580 0
4145 9298 -542 0
-6861 -4196 368 0
-7030 -2886 9182 0
-709 8946 -5031 0
-7565 5427 -5746 0
-3579 966 5562 0
7979 7341 7271 0
-3136 9644 5490 0
5922 8246 6186 0
-642 -6709 -7394 0
-1509 4533 -2695 0
-2437 -3497 -1707 0
-4104 8908 4387 0
-4802 -9797 -4745 0
6026 2044 -7062 0
3734 2112 -8714 0
-2461 8790 -8476 0
-6184 -938 -8615 0
-6793 7506 8196 0
1820 -6892 -5519 0
-1414 -1483 8618 0
-6184 -2263 6706 0
-3547 -1096 881 0
4292 -9256 -1844 0
3718 -7667 8416 0
6763 -718 5238 0
-6803 -1060 1341 0
1384 9703 216 0
-469 -9034 1675 0
414 -3911 1008 0
-3890 3651 7626 0
9507 7987 1507 0
-6524 3531 -2807 0
115 2913 -5275 0
1963 -7638 -5270 0
6611 9672 -836 0
-7171 9484 -3421 0
7586 -4695 3038 0
7512 -8848 4060 0
631 -8462 -3953 0
-8908 2554 7958 0
-2238 -6655 -6733 0
-8961 -4812 -2862 0
8927 4577 -9053 0
8026 -3162 4419 0
6516 -5212 7081 0
-9451 4287 9980 0
-8135 -6205 -7701 0
3763 4216 535 0
-2119 -3502 -8883 0
4371 -2005 -4319 0
4683 7346 -4222 0
7966 5787 4187 0
-4010 -2184 -4705 0
-3112 -1935 8651 0
229 8864 -4283 0
-4435 3568 7285 0
-2282 -6489 5010 0
5695 -8061 846 0
1919 -5134 8567 0
-4594 -111 -50 0
1174 405 -3010 0
6938 5160 8662 0
6364 -4583 7650 0
-1395 42 -8409 0
-7086 9019 -8921 0
9635 4527 5872 0
6180 -6456 -6817 0
-2459 2752 -4828 0
-1560 -7777 9884 0
2518 7732 -4403 0
7790 -3881 1585 0
-8672 6605 -8978 0
-9861 -1707 -7276 0
984 -6542 7616 0
9801 522 -2315 0
-8288 7331 1048 0
7008 -9867 9336 0
563 1090 -7760 0
4336 -9465 824 0
450 -8436 -4032 0
6493 -6939 -3924 0
-3954 7958 7631 0
-5091 -9880 -1600 0
-7850 -9734 -7133 0
-4705 4491 1377 0
5384 8009 -4034 0
-2415 -4710 -1830 0
-2464 6280 5890 0
-1397 2083 -7196 0
-8645 9613 -9305 0
3128 -3170 9175 0
-6114 1806 -2399 0
503 8726 6648 0
-1785 5983 -9463 0
-3786 3613 -903 0
7004 5247 -9269 0
-6818 -8967 1458 0
1777 4192 9804 0
-7339 -242 -9939 0
-7494 8382 4126 0
-2437 -6823 -4969 0
-6708 -7882 -7077 0
2949 1134 6883 0
-7884 -3773 -4977 0
-2551 7346 6853 0
-2522 -4969 62 0
2853 -9798 -3624 0
-3349 9290 7942 0
-1345 -5245 -7792 0
-9375 -8456 839 0
3310 1146 -1679 0
4274 8901 1895 0
-6196 -5125 -9459 0
7021 5649 2811 0
7026 -6627 5477 0
-2564 8201 -7305 0
9921 -7649 -6350 0
543 6889 8591 0
9000 3534 3305 0
8214 7425 3933 0
-9469 -9371 3133 0
-7266 9963 -7608 0
-4586 -7751 -166 0
-9936 6219 -5107 0
4547 -9451 -7095 0
-4094 8341 3299 0
-4892 2909 -4386 0
-8266 -8635 -1345 0
-83 -1346 -6505 0
3454 1432 5106 0
-9222 -826 -1542 0
-5011 -5558 -5345 0
5879 9108 -8195 0
5036 -7601 -3153 0
4090 2124 596 0
-4912 -6370 -5910 0
-7452 -6998 3647 0
4664 5457 7538 0
-2115 -9983 3810 0
-5941 6483 7226 0
7604 1212 -4519 0
6745 -2703 -2681 0
-1814 8739 4946 0
7762 -662 -5260 0
9483 -6705 8102 0
3823 -8293 -1924 0
1827 -5239 4021 0
1786 -6669 -1346 0
9049 -7702 -5780 0
-5640 2952 -4107 0
-5961 -104 -9630 0
-7930 3473 2745 0
-2320 -288 -9056 0
5392 6029 -4306 0
-7272 -7236 3149 0
-7568 -6880 8115 0
7789 -3878 -1134 0
-7080 -687 -1037 0
-3264 -3345 -9740 0
6429 666 -2724 0
1021 8509 1606 0
9958 5605 -5252 0
-7579 -7749 3240 0
7752 6638 6196 0
-3052 8432 8341 0
331 -8343 4011 0
6178 -4574 2224 0
5621 3413 -9238 0
829 5651 -4913 0
-9942 -757 2188 0
1994 6750 -589 0
8369 8098 1384 0
1314 -7915 6223 0
-1995 4343 -4312 0
-4117 -9298 -5122 0
2586 -9004 2907 0
7731 2926 725 0
-6736 5380 9751 0
-2866 -1073 5499 0
-771 -892 3944 0
4258 -7377 5451 0
-9665 2214 3764 0
-5243 1930 -2880 0
4855 9512 9450 0
543 -4143 -940 0
-2208 3304 -7727 0
-8092 -2483 -5382 0
9276 -725 7327 0
-9012 396 -5768 0
6720 -8597 4716 0
-4076 553 8752 0
-5456 9005 983 0
-5366 -3030 6026 0
276 5819 -1326 0
-3472 -8160 -9550 0
-7065 4662 8256 0
-967 1403 -4447 0
-4772 3433 -931 0
-457 8983 8476 0
-3804 7600 -3027 0
8876 2358 -1764 0
-1849 -4281 2386 0
-5485 -9329 -9507 0
6480 -7620 1483 0
4834 -9329 7626 0
2568 7036 -6711 0
801 -4226 283 0
-4893 4434 7366 0
-296 -3114 8637 0
-2094 -5778 -1830 0
6643 7897 -4128 0
5787 -8737 8150 0
-4471 4704 -4742 0
3016 9605 -312 0
-5793 -4736 7675 0
2894 -4085 1019 0
6838 -8487 1894 0
-4582 -4256 6613 0
6902 -8835 7449 0
-4401 -6897 -6072 0
-4361 -7711 6081 0
-2273 6503 1094 0
-5516 -2563 -3422 0
-75 432 8776 0
-791 -7936 -5636 0
7421 8444 -6050 0
-3896 -4533 1235 0
-950 4185 -5055 0
-8068 6907 1158 0
2177 -7072 1298 0
1450 2905 -3091 0
3408 -1491 -611 0
-8731 -8446 9909 0
-7930 -3327 -3585 0
-169 -3453 1172 0
4994 1372 -3992 0
3662 2987 7560 0
5717 -8816 6017 0
4069 -523 -142 0
-3760 3083 4473 0
-5351 -5828 4827 0
-1039 -8877 -1380 0
-7351 9090 4100 0
-7851 9068 5971 0
4209 5087 -3489 0
5310 -4320 -8180 0
-6528 -1577 -4073 0
5883 -904 -4095 0
-8687 176 9287 0
5524 666 5964 0
-1524 -8501 870 0
-8020 -335 9108 0
6890 -1292 897 0
-1795 8757 604 0
1492 -7459 -1986 0
2971 2989 430 0
-9236 2288 2073 0
-7990 -1583 -5896 0
3340 -7810 6315 0
4212 -5983 4143 0
612 -8648 5544 0
-700 887 4730 0
8553 -5253 9627 0
4698 4201 -8144 0
3905 8685 1016 0
7901 -4884 8861 0
-9395 3480 -2500 0
2078 2276 -9227 0
-9163 -4340 -9739 0
-7435 2940 2970 0
-9986 -1275 7765 0
2016 -2250 -541 0
-267 2980 1463 0
9660 8915 2221 0
-2068 -1758 -2732 0
8776 510 -4305 0
-8294 7945 2981 0
7637 -3898 1369 0
8452 -6166 468 0
452 -3758 8198 0
8788 8037 -3129 0
118 2292 -5105 0
-8171 8455 -333 0
6072 6012 8044 0
-8656 7956 2699 0
8962 -3016 13 0
4394 -5774 7708 0
-6824 5210 -8238 0
-3558 3012 7680 0
402 -6560 1317 0
7082 -6714 8160 0
-1574 -6158 6952 0
782 -1258 -8187 0
-4870 1171 -3597 0
-7733 -1490 8018 0
3655 -3067 -9241 0
-5735 -4672 6201 0
-1321 -365 -4115 0
760 -2805 4170 0
70 -1713 917 0
-8161 -6432 -7152 0
-8000 3774 1998 0
7756 151 9855 0
-6040 6579 1147 0
8644 -6608 4078 0
7170 -2460 8996 0
275 -9614 -7620 0
6983 811 -460 0
-3958 -9267 -1466 0
4132 4276 -4657 0
-2055 -4394 -6734 0
5519 -8468 -1826 0
3252 -9552 7144 0
-343 -3886 5550 0
-6915 -7070 -3001 0
-7531 8232 6170 0
2769 -3548 4787 0
-1075 1296 -8448 0
8297 -9917 -3910 0
-8064 -2340 -895 0
670 -1157 9773 0
2793 -8989 -5577 0
2880 -6895 -7486 0
-4441 -4943 125 0
9338 -6746 2713 0
9236 2420 1182 0
-8071 1743 5966 0
-3223 -7263 8403 0
243 8443 -2764 0
3680 8125 -686 0
-5632 7832 -4671 0
8945 -9961 6660 0
1073 8457 5209 0
-8789 -9912 4984 0
1182 4387 2850 0
-3071 -2962 5913 0
4332 -7870 -1710 0
2549 -1143 9500 0
5908 -778 -7165 0
-7468 4017 -3390 0
1321 -6341 -6592 0
-8237 -3475 -6834 0
-5632 7389 -4564 0
-1927 -3776 -6135 0
3380 8079 -9564 0
-1553 -2151 -7915 0
-2282 6070 -1488 0
269 -812 9006 0
1767 -4710 -9388 0
6710 9168 1948 0
8094 677 2291 0
9154 -3282 1792 0
2877 6548 1706 0
6885 -4983 -4833 0
7555 -2802 778 0
-5927 5228 -3560 0
-2041 7495 -7622 0
8369 -27 6533 0
3023 -4955 3230 0
-9510 -1605 -4766 0
7969 -4141 -8143 0
-6312 -5949 -4091 0
-4503 -6788 -9674 0
-9907 6510 -410 0
6573 -7818 9000 0
6430 -5602 774 0
-5696 5402 7084 0
-7346 -3746 9336 0
7361 -4613 3505 0
8528 -3360 -8777 0
2316 4048 5152 0
-1933 5224 4997 0
-1624 5550 1168 0
-9266 7039 -3370 0
-7769 -8486 -4072 0
499 -4918 -4550 0
-6385 2252 -4627 0
7544 7217 -1694 0
1899 1838 9068 0
9482 4097 -2822 0
-5750 -1934 9649 0
1204 6779 -283 0
-9142 3913 1545 0
-1199 9188 9606 0
-6638 -3876 1189 0
-3180 4989 6818 0
7639 -9341 2947 0
-39 -2548 4744 0
-9730 5630 3294 0
-2843 5695 8639 0
669 -969 -905 0
-2588 9557 9807 0
3495 2218 6048 0
6172 9006 9895 0
4064 -4857 7061 0
-1441 9685 3126 0
-5165 9636 6800 0
9821 -5636 -3869 0
-6801 -7232 -2567 0
2585 -2492 8001 0
5759 -7276 -51 0
-8298 898 -9714 0
6698 -9242 3186 0
-9288 -963 7385 0
-3150 -8423 6227 0
-9362 3205 2777 0
1954 -5703 -9811 0
-8213 8974 -6342 0
-7418 -7553 5762 0
4746 -2745 9848 0
5500 4729 6241 0
6250 -6262 -1712 0
-2117 151 1579 0
9953 -1651 -2441 0
4454 9857 -2029 0
6862 3392 -4361 0
-6713 900 8763 0
6640 -7535 6848 0
7259 -1299 6080 0
-8337 -5069 -371 0
9417 -4597 9881 0
8131 6542 -4442 0
-2359 1605 -6216 0
-5922 3319 6912 0
9792 3482 4452 0
-2414 -6119 -8390 0
-4339 7009 -2073 0
-8632 6884 -2803 0
3855 -1638 -8645 0
-2044 -5093 8727 0
-1985 7556 7645 0
